H  O 
 1.0000000000000000
     5.5999999999999996    0.0000000000000000    0.0000000000000000
     0.0000000000000000    5.5999999999999996    0.0000000000000000
     0.0000000000000000    0.0000000000000000    5.5999999999999996
 H   O  
  32  16
Cartesian
  0.8818653347947319  4.7181346652052669  4.7181346652052669
  1.9181346652052678  3.6818653347947321  4.7181346652052669
  5.0818653347947320  3.3181346652052675  5.0818653347947320
  3.6818653347947321  0.8818653347947319  0.8818653347947319
  4.7181346652052669  1.9181346652052678  0.8818653347947319
  5.0818653347947320  0.5181346652052679  2.2818653347947317
  3.3181346652052675  2.2818653347947317  2.2818653347947317
  0.8818653347947319  3.6818653347947321  0.8818653347947319
  2.2818653347947317  5.0818653347947320  3.3181346652052675
  1.9181346652052678  4.7181346652052669  0.8818653347947319
  0.5181346652052679  5.0818653347947320  2.2818653347947317
  0.8818653347947319  0.8818653347947319  3.6818653347947321
  1.9181346652052678  1.9181346652052678  3.6818653347947321
  2.2818653347947317  0.5181346652052679  5.0818653347947320
  0.5181346652052679  2.2818653347947317  5.0818653347947320
  3.6818653347947321  3.6818653347947321  3.6818653347947321
  4.7181346652052669  4.7181346652052669  3.6818653347947321
  2.2818653347947317  3.3181346652052675  2.2818653347947317
  0.5181346652052679  3.3181346652052675  3.3181346652052675
  3.3181346652052675  5.0818653347947320  5.0818653347947320
  5.0818653347947320  5.0818653347947320  0.5181346652052679
  3.6818653347947321  1.9181346652052678  4.7181346652052669
  4.7181346652052669  0.8818653347947319  4.7181346652052669
  5.0818653347947320  2.2818653347947317  3.3181346652052675
  3.3181346652052675  3.3181346652052675  0.5181346652052679
  0.5181346652052679  0.5181346652052679  0.5181346652052679
  3.3181346652052675  0.5181346652052679  3.3181346652052675
  0.8818653347947319  1.9181346652052678  1.9181346652052678
  4.7181346652052669  3.6818653347947321  1.9181346652052678
  3.6818653347947321  4.7181346652052669  1.9181346652052678
  2.2818653347947317  2.2818653347947317  0.5181346652052679
  1.9181346652052678  0.8818653347947319  1.9181346652052678
  2.7999999999999998  2.7999999999999998  2.7999999999999998
  4.1999999999999993  4.1999999999999993  4.1999999999999993
  1.3999999999999999  1.3999999999999999  1.3999999999999999
  2.7999999999999998  2.7999999999999998  0.0000000000000000
  1.3999999999999999  1.3999999999999999  4.1999999999999993
  0.0000000000000000  2.7999999999999998  2.7999999999999998
  4.1999999999999993  4.1999999999999993  1.3999999999999999
  1.3999999999999999  4.1999999999999993  4.1999999999999993
  1.3999999999999999  4.1999999999999993  1.3999999999999999
  0.0000000000000000  2.7999999999999998  0.0000000000000000
  2.7999999999999998  0.0000000000000000  2.7999999999999998
  4.1999999999999993  1.3999999999999999  4.1999999999999993
  4.1999999999999993  1.3999999999999999  1.3999999999999999
  2.7999999999999998  0.0000000000000000  0.0000000000000000
  0.0000000000000000  0.0000000000000000  2.7999999999999998
  0.0000000000000000  0.0000000000000000  0.0000000000000000
