H  O 
 1.0000000000000000
     5.5999999999999996    0.0000000000000000    0.0000000000000000
     0.0000000000000000    5.5999999999999996    0.0000000000000000
     0.0000000000000000    0.0000000000000000    5.5999999999999996
 H   O  
  32  16
Cartesian
  0.8934123401785247  4.7065876598214746  4.7065876598214746
  1.9065876598214750  3.6934123401785244  4.7065876598214746
  5.0934123401785243  3.3065876598214752  5.0934123401785243
  3.6934123401785244  0.8934123401785247  0.8934123401785247
  4.7065876598214746  1.9065876598214750  0.8934123401785247
  5.0934123401785243  0.5065876598214754  2.2934123401785245
  3.3065876598214752  2.2934123401785245  2.2934123401785245
  0.8934123401785247  3.6934123401785244  0.8934123401785247
  2.2934123401785245  5.0934123401785243  3.3065876598214752
  1.9065876598214750  4.7065876598214746  0.8934123401785247
  0.5065876598214754  5.0934123401785243  2.2934123401785245
  0.8934123401785247  0.8934123401785247  3.6934123401785244
  1.9065876598214750  1.9065876598214750  3.6934123401785244
  2.2934123401785245  0.5065876598214754  5.0934123401785243
  0.5065876598214754  2.2934123401785245  5.0934123401785243
  3.6934123401785244  3.6934123401785244  3.6934123401785244
  4.7065876598214746  4.7065876598214746  3.6934123401785244
  2.2934123401785245  3.3065876598214752  2.2934123401785245
  0.5065876598214754  3.3065876598214752  3.3065876598214752
  3.3065876598214752  5.0934123401785243  5.0934123401785243
  5.0934123401785243  5.0934123401785243  0.5065876598214754
  3.6934123401785244  1.9065876598214750  4.7065876598214746
  4.7065876598214746  0.8934123401785247  4.7065876598214746
  5.0934123401785243  2.2934123401785245  3.3065876598214752
  3.3065876598214752  3.3065876598214752  0.5065876598214754
  0.5065876598214754  0.5065876598214754  0.5065876598214754
  3.3065876598214752  0.5065876598214754  3.3065876598214752
  0.8934123401785247  1.9065876598214750  1.9065876598214750
  4.7065876598214746  3.6934123401785244  1.9065876598214750
  3.6934123401785244  4.7065876598214746  1.9065876598214750
  2.2934123401785245  2.2934123401785245  0.5065876598214754
  1.9065876598214750  0.8934123401785247  1.9065876598214750
  2.7999999999999998  2.7999999999999998  2.7999999999999998
  4.1999999999999993  4.1999999999999993  4.1999999999999993
  1.3999999999999999  1.3999999999999999  1.3999999999999999
  2.7999999999999998  2.7999999999999998  0.0000000000000000
  1.3999999999999999  1.3999999999999999  4.1999999999999993
  0.0000000000000000  2.7999999999999998  2.7999999999999998
  4.1999999999999993  4.1999999999999993  1.3999999999999999
  1.3999999999999999  4.1999999999999993  4.1999999999999993
  1.3999999999999999  4.1999999999999993  1.3999999999999999
  0.0000000000000000  2.7999999999999998  0.0000000000000000
  2.7999999999999998  0.0000000000000000  2.7999999999999998
  4.1999999999999993  1.3999999999999999  4.1999999999999993
  4.1999999999999993  1.3999999999999999  1.3999999999999999
  2.7999999999999998  0.0000000000000000  0.0000000000000000
  0.0000000000000000  0.0000000000000000  2.7999999999999998
  0.0000000000000000  0.0000000000000000  0.0000000000000000
