H  O 
 1.0000000000000000
     5.5999999999999996    0.0000000000000000    0.0000000000000000
     0.0000000000000000    5.5999999999999996    0.0000000000000000
     0.0000000000000000    0.0000000000000000    5.5999999999999996
 H   O  
  32  16
Cartesian
  0.9598076211353316  4.6401923788646684  4.6401923788646684
  1.8401923788646684  3.7598076211353315  4.6401923788646684
  5.1598076211353314  3.2401923788646680  5.1598076211353314
  3.7598076211353315  0.9598076211353316  0.9598076211353316
  4.6401923788646684  1.8401923788646684  0.9598076211353316
  5.1598076211353314  0.4401923788646684  2.3598076211353316
  3.2401923788646680  2.3598076211353316  2.3598076211353316
  0.9598076211353316  3.7598076211353315  0.9598076211353316
  2.3598076211353316  5.1598076211353314  3.2401923788646680
  1.8401923788646684  4.6401923788646684  0.9598076211353316
  0.4401923788646684  5.1598076211353314  2.3598076211353316
  0.9598076211353316  0.9598076211353316  3.7598076211353315
  1.8401923788646684  1.8401923788646684  3.7598076211353315
  2.3598076211353316  0.4401923788646684  5.1598076211353314
  0.4401923788646684  2.3598076211353316  5.1598076211353314
  3.7598076211353315  3.7598076211353315  3.7598076211353315
  4.6401923788646684  4.6401923788646684  3.7598076211353315
  2.3598076211353316  3.2401923788646680  2.3598076211353316
  0.4401923788646684  3.2401923788646680  3.2401923788646680
  3.2401923788646680  5.1598076211353314  5.1598076211353314
  5.1598076211353314  5.1598076211353314  0.4401923788646684
  3.7598076211353315  1.8401923788646684  4.6401923788646684
  4.6401923788646684  0.9598076211353316  4.6401923788646684
  5.1598076211353314  2.3598076211353316  3.2401923788646680
  3.2401923788646680  3.2401923788646680  0.4401923788646684
  0.4401923788646684  0.4401923788646684  0.4401923788646684
  3.2401923788646680  0.4401923788646684  3.2401923788646680
  0.9598076211353316  1.8401923788646684  1.8401923788646684
  4.6401923788646684  3.7598076211353315  1.8401923788646684
  3.7598076211353315  4.6401923788646684  1.8401923788646684
  2.3598076211353316  2.3598076211353316  0.4401923788646684
  1.8401923788646684  0.9598076211353316  1.8401923788646684
  2.7999999999999998  2.7999999999999998  2.7999999999999998
  4.1999999999999993  4.1999999999999993  4.1999999999999993
  1.3999999999999999  1.3999999999999999  1.3999999999999999
  2.7999999999999998  2.7999999999999998  0.0000000000000000
  1.3999999999999999  1.3999999999999999  4.1999999999999993
  0.0000000000000000  2.7999999999999998  2.7999999999999998
  4.1999999999999993  4.1999999999999993  1.3999999999999999
  1.3999999999999999  4.1999999999999993  4.1999999999999993
  1.3999999999999999  4.1999999999999993  1.3999999999999999
  0.0000000000000000  2.7999999999999998  0.0000000000000000
  2.7999999999999998  0.0000000000000000  2.7999999999999998
  4.1999999999999993  1.3999999999999999  4.1999999999999993
  4.1999999999999993  1.3999999999999999  1.3999999999999999
  2.7999999999999998  0.0000000000000000  0.0000000000000000
  0.0000000000000000  0.0000000000000000  2.7999999999999998
  0.0000000000000000  0.0000000000000000  0.0000000000000000
