H  O 
 1.0000000000000000
     5.5999999999999996    0.0000000000000000    0.0000000000000000
     0.0000000000000000    5.5999999999999996    0.0000000000000000
     0.0000000000000000    0.0000000000000000    5.5999999999999996
 H   O  
  32  16
Cartesian
  0.8876388374866283  4.7123611625133712  4.7123611625133712
  1.9123611625133716  3.6876388374866278  4.7123611625133712
  5.0876388374866277  3.3123611625133718  5.0876388374866277
  3.6876388374866278  0.8876388374866283  0.8876388374866283
  4.7123611625133712  1.9123611625133716  0.8876388374866283
  5.0876388374866277  0.5123611625133716  2.2876388374866279
  3.3123611625133718  2.2876388374866279  2.2876388374866279
  0.8876388374866283  3.6876388374866278  0.8876388374866283
  2.2876388374866279  5.0876388374866277  3.3123611625133718
  1.9123611625133716  4.7123611625133712  0.8876388374866283
  0.5123611625133716  5.0876388374866277  2.2876388374866279
  0.8876388374866283  0.8876388374866283  3.6876388374866278
  1.9123611625133716  1.9123611625133716  3.6876388374866278
  2.2876388374866279  0.5123611625133716  5.0876388374866277
  0.5123611625133716  2.2876388374866279  5.0876388374866277
  3.6876388374866278  3.6876388374866278  3.6876388374866278
  4.7123611625133712  4.7123611625133712  3.6876388374866278
  2.2876388374866279  3.3123611625133718  2.2876388374866279
  0.5123611625133716  3.3123611625133718  3.3123611625133718
  3.3123611625133718  5.0876388374866277  5.0876388374866277
  5.0876388374866277  5.0876388374866277  0.5123611625133716
  3.6876388374866278  1.9123611625133716  4.7123611625133712
  4.7123611625133712  0.8876388374866283  4.7123611625133712
  5.0876388374866277  2.2876388374866279  3.3123611625133718
  3.3123611625133718  3.3123611625133718  0.5123611625133716
  0.5123611625133716  0.5123611625133716  0.5123611625133716
  3.3123611625133718  0.5123611625133716  3.3123611625133718
  0.8876388374866283  1.9123611625133716  1.9123611625133716
  4.7123611625133712  3.6876388374866278  1.9123611625133716
  3.6876388374866278  4.7123611625133712  1.9123611625133716
  2.2876388374866279  2.2876388374866279  0.5123611625133716
  1.9123611625133716  0.8876388374866283  1.9123611625133716
  2.7999999999999998  2.7999999999999998  2.7999999999999998
  4.1999999999999993  4.1999999999999993  4.1999999999999993
  1.3999999999999999  1.3999999999999999  1.3999999999999999
  2.7999999999999998  2.7999999999999998  0.0000000000000000
  1.3999999999999999  1.3999999999999999  4.1999999999999993
  0.0000000000000000  2.7999999999999998  2.7999999999999998
  4.1999999999999993  4.1999999999999993  1.3999999999999999
  1.3999999999999999  4.1999999999999993  4.1999999999999993
  1.3999999999999999  4.1999999999999993  1.3999999999999999
  0.0000000000000000  2.7999999999999998  0.0000000000000000
  2.7999999999999998  0.0000000000000000  2.7999999999999998
  4.1999999999999993  1.3999999999999999  4.1999999999999993
  4.1999999999999993  1.3999999999999999  1.3999999999999999
  2.7999999999999998  0.0000000000000000  0.0000000000000000
  0.0000000000000000  0.0000000000000000  2.7999999999999998
  0.0000000000000000  0.0000000000000000  0.0000000000000000
