ATOMIC_SPECIES
H 1.007825 H.upf
O 15.99491 O.upf

NUMERICAL_ORBITAL
H_DZP/H_gga_10au_100Ry_2s1p.orb
O_DZP/O_gga_10au_100Ry_2s2p1d.orb

LATTICE_CONSTANT
1.8897268777

LATTICE_VECTORS
5.000000000000 0.000000000000 0.000000000000
0.000000000000 5.000000000000 0.000000000000
0.000000000000 0.000000000000 5.000000000000

ATOMIC_POSITIONS
Cartesian
H
0.0
32
0.625000000000 0.625000000000 0.625000000000
1.875000000000 1.875000000000 0.625000000000
1.875000000000 0.625000000000 1.875000000000
0.625000000000 1.875000000000 1.875000000000
0.625000000000 0.625000000000 3.125000000000
1.875000000000 1.875000000000 3.125000000000
1.875000000000 0.625000000000 4.375000000000
0.625000000000 1.875000000000 4.375000000000
0.625000000000 3.125000000000 0.625000000000
1.875000000000 4.375000000000 0.625000000000
1.875000000000 3.125000000000 1.875000000000
0.625000000000 4.375000000000 1.875000000000
0.625000000000 3.125000000000 3.125000000000
1.875000000000 4.375000000000 3.125000000000
1.875000000000 3.125000000000 4.375000000000
0.625000000000 4.375000000000 4.375000000000
3.125000000000 0.625000000000 0.625000000000
4.375000000000 1.875000000000 0.625000000000
4.375000000000 0.625000000000 1.875000000000
3.125000000000 1.875000000000 1.875000000000
3.125000000000 0.625000000000 3.125000000000
4.375000000000 1.875000000000 3.125000000000
4.375000000000 0.625000000000 4.375000000000
3.125000000000 1.875000000000 4.375000000000
3.125000000000 3.125000000000 0.625000000000
4.375000000000 4.375000000000 0.625000000000
4.375000000000 3.125000000000 1.875000000000
3.125000000000 4.375000000000 1.875000000000
3.125000000000 3.125000000000 3.125000000000
4.375000000000 4.375000000000 3.125000000000
4.375000000000 3.125000000000 4.375000000000
3.125000000000 4.375000000000 4.375000000000
O
0.0
16
0.000000000000 0.000000000000 0.000000000000
1.250000000000 1.250000000000 1.250000000000
0.000000000000 0.000000000000 2.500000000000
1.250000000000 1.250000000000 3.750000000000
0.000000000000 2.500000000000 0.000000000000
1.250000000000 3.750000000000 1.250000000000
0.000000000000 2.500000000000 2.500000000000
1.250000000000 3.750000000000 3.750000000000
2.500000000000 0.000000000000 0.000000000000
3.750000000000 1.250000000000 1.250000000000
2.500000000000 0.000000000000 2.500000000000
3.750000000000 1.250000000000 3.750000000000
2.500000000000 2.500000000000 0.000000000000
3.750000000000 3.750000000000 1.250000000000
2.500000000000 2.500000000000 2.500000000000
3.750000000000 3.750000000000 3.750000000000
