H  O 
 1.0000000000000000
     5.5999999999999996    0.0000000000000000    0.0000000000000000
     0.0000000000000000    5.5999999999999996    0.0000000000000000
     0.0000000000000000    0.0000000000000000    5.5999999999999996
 H   O  
  32  16
Cartesian
  0.9251666049839540  4.6748333950160461  4.6748333950160461
  1.8748333950160456  3.7251666049839538  4.6748333950160461
  5.1251666049839537  3.2748333950160458  5.1251666049839537
  3.7251666049839538  0.9251666049839540  0.9251666049839540
  4.6748333950160461  1.8748333950160456  0.9251666049839540
  5.1251666049839537  0.4748333950160459  2.3251666049839539
  3.2748333950160458  2.3251666049839539  2.3251666049839539
  0.9251666049839540  3.7251666049839538  0.9251666049839540
  2.3251666049839539  5.1251666049839537  3.2748333950160458
  1.8748333950160456  4.6748333950160461  0.9251666049839540
  0.4748333950160459  5.1251666049839537  2.3251666049839539
  0.9251666049839540  0.9251666049839540  3.7251666049839538
  1.8748333950160456  1.8748333950160456  3.7251666049839538
  2.3251666049839539  0.4748333950160459  5.1251666049839537
  0.4748333950160459  2.3251666049839539  5.1251666049839537
  3.7251666049839538  3.7251666049839538  3.7251666049839538
  4.6748333950160461  4.6748333950160461  3.7251666049839538
  2.3251666049839539  3.2748333950160458  2.3251666049839539
  0.4748333950160459  3.2748333950160458  3.2748333950160458
  3.2748333950160458  5.1251666049839537  5.1251666049839537
  5.1251666049839537  5.1251666049839537  0.4748333950160459
  3.7251666049839538  1.8748333950160456  4.6748333950160461
  4.6748333950160461  0.9251666049839540  4.6748333950160461
  5.1251666049839537  2.3251666049839539  3.2748333950160458
  3.2748333950160458  3.2748333950160458  0.4748333950160459
  0.4748333950160459  0.4748333950160459  0.4748333950160459
  3.2748333950160458  0.4748333950160459  3.2748333950160458
  0.9251666049839540  1.8748333950160456  1.8748333950160456
  4.6748333950160461  3.7251666049839538  1.8748333950160456
  3.7251666049839538  4.6748333950160461  1.8748333950160456
  2.3251666049839539  2.3251666049839539  0.4748333950160459
  1.8748333950160456  0.9251666049839540  1.8748333950160456
  2.7999999999999998  2.7999999999999998  2.7999999999999998
  4.1999999999999993  4.1999999999999993  4.1999999999999993
  1.3999999999999999  1.3999999999999999  1.3999999999999999
  2.7999999999999998  2.7999999999999998  0.0000000000000000
  1.3999999999999999  1.3999999999999999  4.1999999999999993
  0.0000000000000000  2.7999999999999998  2.7999999999999998
  4.1999999999999993  4.1999999999999993  1.3999999999999999
  1.3999999999999999  4.1999999999999993  4.1999999999999993
  1.3999999999999999  4.1999999999999993  1.3999999999999999
  0.0000000000000000  2.7999999999999998  0.0000000000000000
  2.7999999999999998  0.0000000000000000  2.7999999999999998
  4.1999999999999993  1.3999999999999999  4.1999999999999993
  4.1999999999999993  1.3999999999999999  1.3999999999999999
  2.7999999999999998  0.0000000000000000  0.0000000000000000
  0.0000000000000000  0.0000000000000000  2.7999999999999998
  0.0000000000000000  0.0000000000000000  0.0000000000000000
