H  O 
 1.0000000000000000
     5.5999999999999996    0.0000000000000000    0.0000000000000000
     0.0000000000000000    5.5999999999999996    0.0000000000000000
     0.0000000000000000    0.0000000000000000    5.5999999999999996
 H   O  
  32  16
Cartesian
  0.8732050807568877  4.7267949192431127  4.7267949192431127
  1.9267949192431122  3.6732050807568877  4.7267949192431127
  5.0732050807568871  3.3267949192431119  5.0732050807568871
  3.6732050807568877  0.8732050807568877  0.8732050807568877
  4.7267949192431127  1.9267949192431122  0.8732050807568877
  5.0732050807568871  0.5267949192431122  2.2732050807568873
  3.3267949192431119  2.2732050807568873  2.2732050807568873
  0.8732050807568877  3.6732050807568877  0.8732050807568877
  2.2732050807568873  5.0732050807568871  3.3267949192431119
  1.9267949192431122  4.7267949192431127  0.8732050807568877
  0.5267949192431122  5.0732050807568871  2.2732050807568873
  0.8732050807568877  0.8732050807568877  3.6732050807568877
  1.9267949192431122  1.9267949192431122  3.6732050807568877
  2.2732050807568873  0.5267949192431122  5.0732050807568871
  0.5267949192431122  2.2732050807568873  5.0732050807568871
  3.6732050807568877  3.6732050807568877  3.6732050807568877
  4.7267949192431127  4.7267949192431127  3.6732050807568877
  2.2732050807568873  3.3267949192431119  2.2732050807568873
  0.5267949192431122  3.3267949192431119  3.3267949192431119
  3.3267949192431119  5.0732050807568871  5.0732050807568871
  5.0732050807568871  5.0732050807568871  0.5267949192431122
  3.6732050807568877  1.9267949192431122  4.7267949192431127
  4.7267949192431127  0.8732050807568877  4.7267949192431127
  5.0732050807568871  2.2732050807568873  3.3267949192431119
  3.3267949192431119  3.3267949192431119  0.5267949192431122
  0.5267949192431122  0.5267949192431122  0.5267949192431122
  3.3267949192431119  0.5267949192431122  3.3267949192431119
  0.8732050807568877  1.9267949192431122  1.9267949192431122
  4.7267949192431127  3.6732050807568877  1.9267949192431122
  3.6732050807568877  4.7267949192431127  1.9267949192431122
  2.2732050807568873  2.2732050807568873  0.5267949192431122
  1.9267949192431122  0.8732050807568877  1.9267949192431122
  2.7999999999999998  2.7999999999999998  2.7999999999999998
  4.1999999999999993  4.1999999999999993  4.1999999999999993
  1.3999999999999999  1.3999999999999999  1.3999999999999999
  2.7999999999999998  2.7999999999999998  0.0000000000000000
  1.3999999999999999  1.3999999999999999  4.1999999999999993
  0.0000000000000000  2.7999999999999998  2.7999999999999998
  4.1999999999999993  4.1999999999999993  1.3999999999999999
  1.3999999999999999  4.1999999999999993  4.1999999999999993
  1.3999999999999999  4.1999999999999993  1.3999999999999999
  0.0000000000000000  2.7999999999999998  0.0000000000000000
  2.7999999999999998  0.0000000000000000  2.7999999999999998
  4.1999999999999993  1.3999999999999999  4.1999999999999993
  4.1999999999999993  1.3999999999999999  1.3999999999999999
  2.7999999999999998  0.0000000000000000  0.0000000000000000
  0.0000000000000000  0.0000000000000000  2.7999999999999998
  0.0000000000000000  0.0000000000000000  0.0000000000000000
