H  O 
 1.0000000000000000
     5.5999999999999996    0.0000000000000000    0.0000000000000000
     0.0000000000000000    5.5999999999999996    0.0000000000000000
     0.0000000000000000    0.0000000000000000    5.5999999999999996
 H   O  
  32  16
Cartesian
  0.8212435565298213  4.7787564434701784  4.7787564434701784
  1.9787564434701785  3.6212435565298211  4.7787564434701784
  5.0212435565298215  3.3787564434701784  5.0212435565298215
  3.6212435565298211  0.8212435565298213  0.8212435565298213
  4.7787564434701784  1.9787564434701785  0.8212435565298213
  5.0212435565298215  0.5787564434701785  2.2212435565298212
  3.3787564434701784  2.2212435565298212  2.2212435565298212
  0.8212435565298213  3.6212435565298211  0.8212435565298213
  2.2212435565298212  5.0212435565298215  3.3787564434701784
  1.9787564434701785  4.7787564434701784  0.8212435565298213
  0.5787564434701785  5.0212435565298215  2.2212435565298212
  0.8212435565298213  0.8212435565298213  3.6212435565298211
  1.9787564434701785  1.9787564434701785  3.6212435565298211
  2.2212435565298212  0.5787564434701785  5.0212435565298215
  0.5787564434701785  2.2212435565298212  5.0212435565298215
  3.6212435565298211  3.6212435565298211  3.6212435565298211
  4.7787564434701784  4.7787564434701784  3.6212435565298211
  2.2212435565298212  3.3787564434701784  2.2212435565298212
  0.5787564434701785  3.3787564434701784  3.3787564434701784
  3.3787564434701784  5.0212435565298215  5.0212435565298215
  5.0212435565298215  5.0212435565298215  0.5787564434701785
  3.6212435565298211  1.9787564434701785  4.7787564434701784
  4.7787564434701784  0.8212435565298213  4.7787564434701784
  5.0212435565298215  2.2212435565298212  3.3787564434701784
  3.3787564434701784  3.3787564434701784  0.5787564434701785
  0.5787564434701785  0.5787564434701785  0.5787564434701785
  3.3787564434701784  0.5787564434701785  3.3787564434701784
  0.8212435565298213  1.9787564434701785  1.9787564434701785
  4.7787564434701784  3.6212435565298211  1.9787564434701785
  3.6212435565298211  4.7787564434701784  1.9787564434701785
  2.2212435565298212  2.2212435565298212  0.5787564434701785
  1.9787564434701785  0.8212435565298213  1.9787564434701785
  2.7999999999999998  2.7999999999999998  2.7999999999999998
  4.1999999999999993  4.1999999999999993  4.1999999999999993
  1.3999999999999999  1.3999999999999999  1.3999999999999999
  2.7999999999999998  2.7999999999999998  0.0000000000000000
  1.3999999999999999  1.3999999999999999  4.1999999999999993
  0.0000000000000000  2.7999999999999998  2.7999999999999998
  4.1999999999999993  4.1999999999999993  1.3999999999999999
  1.3999999999999999  4.1999999999999993  4.1999999999999993
  1.3999999999999999  4.1999999999999993  1.3999999999999999
  0.0000000000000000  2.7999999999999998  0.0000000000000000
  2.7999999999999998  0.0000000000000000  2.7999999999999998
  4.1999999999999993  1.3999999999999999  4.1999999999999993
  4.1999999999999993  1.3999999999999999  1.3999999999999999
  2.7999999999999998  0.0000000000000000  0.0000000000000000
  0.0000000000000000  0.0000000000000000  2.7999999999999998
  0.0000000000000000  0.0000000000000000  0.0000000000000000
