H  O 
 1.0000000000000000
     5.5999999999999996    0.0000000000000000    0.0000000000000000
     0.0000000000000000    5.5999999999999996    0.0000000000000000
     0.0000000000000000    0.0000000000000000    5.5999999999999996
 H   O  
  32  16
Cartesian
  0.7894892917243920  4.8105107082756078  4.8105107082756078
  2.0105107082756080  3.5894892917243921  4.8105107082756078
  4.9894892917243920  3.4105107082756074  4.9894892917243920
  3.5894892917243921  0.7894892917243920  0.7894892917243920
  4.8105107082756078  2.0105107082756080  0.7894892917243920
  4.9894892917243920  0.6105107082756079  2.1894892917243918
  3.4105107082756074  2.1894892917243918  2.1894892917243918
  0.7894892917243920  3.5894892917243921  0.7894892917243920
  2.1894892917243918  4.9894892917243920  3.4105107082756074
  2.0105107082756080  4.8105107082756078  0.7894892917243920
  0.6105107082756079  4.9894892917243920  2.1894892917243918
  0.7894892917243920  0.7894892917243920  3.5894892917243921
  2.0105107082756080  2.0105107082756080  3.5894892917243921
  2.1894892917243918  0.6105107082756079  4.9894892917243920
  0.6105107082756079  2.1894892917243918  4.9894892917243920
  3.5894892917243921  3.5894892917243921  3.5894892917243921
  4.8105107082756078  4.8105107082756078  3.5894892917243921
  2.1894892917243918  3.4105107082756074  2.1894892917243918
  0.6105107082756079  3.4105107082756074  3.4105107082756074
  3.4105107082756074  4.9894892917243920  4.9894892917243920
  4.9894892917243920  4.9894892917243920  0.6105107082756079
  3.5894892917243921  2.0105107082756080  4.8105107082756078
  4.8105107082756078  0.7894892917243920  4.8105107082756078
  4.9894892917243920  2.1894892917243918  3.4105107082756074
  3.4105107082756074  3.4105107082756074  0.6105107082756079
  0.6105107082756079  0.6105107082756079  0.6105107082756079
  3.4105107082756074  0.6105107082756079  3.4105107082756074
  0.7894892917243920  2.0105107082756080  2.0105107082756080
  4.8105107082756078  3.5894892917243921  2.0105107082756080
  3.5894892917243921  4.8105107082756078  2.0105107082756080
  2.1894892917243918  2.1894892917243918  0.6105107082756079
  2.0105107082756080  0.7894892917243920  2.0105107082756080
  2.7999999999999998  2.7999999999999998  2.7999999999999998
  4.1999999999999993  4.1999999999999993  4.1999999999999993
  1.3999999999999999  1.3999999999999999  1.3999999999999999
  2.7999999999999998  2.7999999999999998  0.0000000000000000
  1.3999999999999999  1.3999999999999999  4.1999999999999993
  0.0000000000000000  2.7999999999999998  2.7999999999999998
  4.1999999999999993  4.1999999999999993  1.3999999999999999
  1.3999999999999999  4.1999999999999993  4.1999999999999993
  1.3999999999999999  4.1999999999999993  1.3999999999999999
  0.0000000000000000  2.7999999999999998  0.0000000000000000
  2.7999999999999998  0.0000000000000000  2.7999999999999998
  4.1999999999999993  1.3999999999999999  4.1999999999999993
  4.1999999999999993  1.3999999999999999  1.3999999999999999
  2.7999999999999998  0.0000000000000000  0.0000000000000000
  0.0000000000000000  0.0000000000000000  2.7999999999999998
  0.0000000000000000  0.0000000000000000  0.0000000000000000
