H  O 
 1.0000000000000000
     5.5999999999999996    0.0000000000000000    0.0000000000000000
     0.0000000000000000    5.5999999999999996    0.0000000000000000
     0.0000000000000000    0.0000000000000000    5.5999999999999996
 H   O  
  32  16
Cartesian
  0.7346410161513776  4.8653589838486218  4.8653589838486218
  2.0653589838486224  3.5346410161513773  4.8653589838486218
  4.9346410161513772  3.4653589838486223  4.9346410161513772
  3.5346410161513773  0.7346410161513776  0.7346410161513776
  4.8653589838486218  2.0653589838486224  0.7346410161513776
  4.9346410161513772  0.6653589838486224  2.1346410161513774
  3.4653589838486223  2.1346410161513774  2.1346410161513774
  0.7346410161513776  3.5346410161513773  0.7346410161513776
  2.1346410161513774  4.9346410161513772  3.4653589838486223
  2.0653589838486224  4.8653589838486218  0.7346410161513776
  0.6653589838486224  4.9346410161513772  2.1346410161513774
  0.7346410161513776  0.7346410161513776  3.5346410161513773
  2.0653589838486224  2.0653589838486224  3.5346410161513773
  2.1346410161513774  0.6653589838486224  4.9346410161513772
  0.6653589838486224  2.1346410161513774  4.9346410161513772
  3.5346410161513773  3.5346410161513773  3.5346410161513773
  4.8653589838486218  4.8653589838486218  3.5346410161513773
  2.1346410161513774  3.4653589838486223  2.1346410161513774
  0.6653589838486224  3.4653589838486223  3.4653589838486223
  3.4653589838486223  4.9346410161513772  4.9346410161513772
  4.9346410161513772  4.9346410161513772  0.6653589838486224
  3.5346410161513773  2.0653589838486224  4.8653589838486218
  4.8653589838486218  0.7346410161513776  4.8653589838486218
  4.9346410161513772  2.1346410161513774  3.4653589838486223
  3.4653589838486223  3.4653589838486223  0.6653589838486224
  0.6653589838486224  0.6653589838486224  0.6653589838486224
  3.4653589838486223  0.6653589838486224  3.4653589838486223
  0.7346410161513776  2.0653589838486224  2.0653589838486224
  4.8653589838486218  3.5346410161513773  2.0653589838486224
  3.5346410161513773  4.8653589838486218  2.0653589838486224
  2.1346410161513774  2.1346410161513774  0.6653589838486224
  2.0653589838486224  0.7346410161513776  2.0653589838486224
  2.7999999999999998  2.7999999999999998  2.7999999999999998
  4.1999999999999993  4.1999999999999993  4.1999999999999993
  1.3999999999999999  1.3999999999999999  1.3999999999999999
  2.7999999999999998  2.7999999999999998  0.0000000000000000
  1.3999999999999999  1.3999999999999999  4.1999999999999993
  0.0000000000000000  2.7999999999999998  2.7999999999999998
  4.1999999999999993  4.1999999999999993  1.3999999999999999
  1.3999999999999999  4.1999999999999993  4.1999999999999993
  1.3999999999999999  4.1999999999999993  1.3999999999999999
  0.0000000000000000  2.7999999999999998  0.0000000000000000
  2.7999999999999998  0.0000000000000000  2.7999999999999998
  4.1999999999999993  1.3999999999999999  4.1999999999999993
  4.1999999999999993  1.3999999999999999  1.3999999999999999
  2.7999999999999998  0.0000000000000000  0.0000000000000000
  0.0000000000000000  0.0000000000000000  2.7999999999999998
  0.0000000000000000  0.0000000000000000  0.0000000000000000
