H  O 
 1.0000000000000000
     5.5999999999999996    0.0000000000000000    0.0000000000000000
     0.0000000000000000    5.5999999999999996    0.0000000000000000
     0.0000000000000000    0.0000000000000000    5.5999999999999996
 H   O  
  32  16
Cartesian
  0.8760918321028358  4.7239081678971635  4.7239081678971635
  1.9239081678971639  3.6760918321028355  4.7239081678971635
  5.0760918321028354  3.3239081678971640  5.0760918321028354
  3.6760918321028355  0.8760918321028358  0.8760918321028358
  4.7239081678971635  1.9239081678971639  0.8760918321028358
  5.0760918321028354  0.5239081678971641  2.2760918321028356
  3.3239081678971640  2.2760918321028356  2.2760918321028356
  0.8760918321028358  3.6760918321028355  0.8760918321028358
  2.2760918321028356  5.0760918321028354  3.3239081678971640
  1.9239081678971639  4.7239081678971635  0.8760918321028358
  0.5239081678971641  5.0760918321028354  2.2760918321028356
  0.8760918321028358  0.8760918321028358  3.6760918321028355
  1.9239081678971639  1.9239081678971639  3.6760918321028355
  2.2760918321028356  0.5239081678971641  5.0760918321028354
  0.5239081678971641  2.2760918321028356  5.0760918321028354
  3.6760918321028355  3.6760918321028355  3.6760918321028355
  4.7239081678971635  4.7239081678971635  3.6760918321028355
  2.2760918321028356  3.3239081678971640  2.2760918321028356
  0.5239081678971641  3.3239081678971640  3.3239081678971640
  3.3239081678971640  5.0760918321028354  5.0760918321028354
  5.0760918321028354  5.0760918321028354  0.5239081678971641
  3.6760918321028355  1.9239081678971639  4.7239081678971635
  4.7239081678971635  0.8760918321028358  4.7239081678971635
  5.0760918321028354  2.2760918321028356  3.3239081678971640
  3.3239081678971640  3.3239081678971640  0.5239081678971641
  0.5239081678971641  0.5239081678971641  0.5239081678971641
  3.3239081678971640  0.5239081678971641  3.3239081678971640
  0.8760918321028358  1.9239081678971639  1.9239081678971639
  4.7239081678971635  3.6760918321028355  1.9239081678971639
  3.6760918321028355  4.7239081678971635  1.9239081678971639
  2.2760918321028356  2.2760918321028356  0.5239081678971641
  1.9239081678971639  0.8760918321028358  1.9239081678971639
  2.7999999999999998  2.7999999999999998  2.7999999999999998
  4.1999999999999993  4.1999999999999993  4.1999999999999993
  1.3999999999999999  1.3999999999999999  1.3999999999999999
  2.7999999999999998  2.7999999999999998  0.0000000000000000
  1.3999999999999999  1.3999999999999999  4.1999999999999993
  0.0000000000000000  2.7999999999999998  2.7999999999999998
  4.1999999999999993  4.1999999999999993  1.3999999999999999
  1.3999999999999999  4.1999999999999993  4.1999999999999993
  1.3999999999999999  4.1999999999999993  1.3999999999999999
  0.0000000000000000  2.7999999999999998  0.0000000000000000
  2.7999999999999998  0.0000000000000000  2.7999999999999998
  4.1999999999999993  1.3999999999999999  4.1999999999999993
  4.1999999999999993  1.3999999999999999  1.3999999999999999
  2.7999999999999998  0.0000000000000000  0.0000000000000000
  0.0000000000000000  0.0000000000000000  2.7999999999999998
  0.0000000000000000  0.0000000000000000  0.0000000000000000
