H  O 
 1.0000000000000000
     5.5999999999999996    0.0000000000000000    0.0000000000000000
     0.0000000000000000    5.5999999999999996    0.0000000000000000
     0.0000000000000000    0.0000000000000000    5.5999999999999996
 H   O  
  32  16
Cartesian
  0.9309401076758503  4.6690598923241495  4.6690598923241495
  1.8690598923241495  3.7309401076758499  4.6690598923241495
  5.1309401076758503  3.2690598923241496  5.1309401076758503
  3.7309401076758499  0.9309401076758503  0.9309401076758503
  4.6690598923241495  1.8690598923241495  0.9309401076758503
  5.1309401076758503  0.4690598923241496  2.3309401076758500
  3.2690598923241496  2.3309401076758500  2.3309401076758500
  0.9309401076758503  3.7309401076758499  0.9309401076758503
  2.3309401076758500  5.1309401076758503  3.2690598923241496
  1.8690598923241495  4.6690598923241495  0.9309401076758503
  0.4690598923241496  5.1309401076758503  2.3309401076758500
  0.9309401076758503  0.9309401076758503  3.7309401076758499
  1.8690598923241495  1.8690598923241495  3.7309401076758499
  2.3309401076758500  0.4690598923241496  5.1309401076758503
  0.4690598923241496  2.3309401076758500  5.1309401076758503
  3.7309401076758499  3.7309401076758499  3.7309401076758499
  4.6690598923241495  4.6690598923241495  3.7309401076758499
  2.3309401076758500  3.2690598923241496  2.3309401076758500
  0.4690598923241496  3.2690598923241496  3.2690598923241496
  3.2690598923241496  5.1309401076758503  5.1309401076758503
  5.1309401076758503  5.1309401076758503  0.4690598923241496
  3.7309401076758499  1.8690598923241495  4.6690598923241495
  4.6690598923241495  0.9309401076758503  4.6690598923241495
  5.1309401076758503  2.3309401076758500  3.2690598923241496
  3.2690598923241496  3.2690598923241496  0.4690598923241496
  0.4690598923241496  0.4690598923241496  0.4690598923241496
  3.2690598923241496  0.4690598923241496  3.2690598923241496
  0.9309401076758503  1.8690598923241495  1.8690598923241495
  4.6690598923241495  3.7309401076758499  1.8690598923241495
  3.7309401076758499  4.6690598923241495  1.8690598923241495
  2.3309401076758500  2.3309401076758500  0.4690598923241496
  1.8690598923241495  0.9309401076758503  1.8690598923241495
  2.7999999999999998  2.7999999999999998  2.7999999999999998
  4.1999999999999993  4.1999999999999993  4.1999999999999993
  1.3999999999999999  1.3999999999999999  1.3999999999999999
  2.7999999999999998  2.7999999999999998  0.0000000000000000
  1.3999999999999999  1.3999999999999999  4.1999999999999993
  0.0000000000000000  2.7999999999999998  2.7999999999999998
  4.1999999999999993  4.1999999999999993  1.3999999999999999
  1.3999999999999999  4.1999999999999993  4.1999999999999993
  1.3999999999999999  4.1999999999999993  1.3999999999999999
  0.0000000000000000  2.7999999999999998  0.0000000000000000
  2.7999999999999998  0.0000000000000000  2.7999999999999998
  4.1999999999999993  1.3999999999999999  4.1999999999999993
  4.1999999999999993  1.3999999999999999  1.3999999999999999
  2.7999999999999998  0.0000000000000000  0.0000000000000000
  0.0000000000000000  0.0000000000000000  2.7999999999999998
  0.0000000000000000  0.0000000000000000  0.0000000000000000
