H  O 
 1.0000000000000000
     5.5999999999999996    0.0000000000000000    0.0000000000000000
     0.0000000000000000    5.5999999999999996    0.0000000000000000
     0.0000000000000000    0.0000000000000000    5.5999999999999996
 H   O  
  32  16
Cartesian
  0.7288675134594812  4.8711324865405183  4.8711324865405183
  2.0711324865405185  3.5288675134594811  4.8711324865405183
  4.9288675134594806  3.4711324865405184  4.9288675134594806
  3.5288675134594811  0.7288675134594812  0.7288675134594812
  4.8711324865405183  2.0711324865405185  0.7288675134594812
  4.9288675134594806  0.6711324865405187  2.1288675134594812
  3.4711324865405184  2.1288675134594812  2.1288675134594812
  0.7288675134594812  3.5288675134594811  0.7288675134594812
  2.1288675134594812  4.9288675134594806  3.4711324865405184
  2.0711324865405185  4.8711324865405183  0.7288675134594812
  0.6711324865405187  4.9288675134594806  2.1288675134594812
  0.7288675134594812  0.7288675134594812  3.5288675134594811
  2.0711324865405185  2.0711324865405185  3.5288675134594811
  2.1288675134594812  0.6711324865405187  4.9288675134594806
  0.6711324865405187  2.1288675134594812  4.9288675134594806
  3.5288675134594811  3.5288675134594811  3.5288675134594811
  4.8711324865405183  4.8711324865405183  3.5288675134594811
  2.1288675134594812  3.4711324865405184  2.1288675134594812
  0.6711324865405187  3.4711324865405184  3.4711324865405184
  3.4711324865405184  4.9288675134594806  4.9288675134594806
  4.9288675134594806  4.9288675134594806  0.6711324865405187
  3.5288675134594811  2.0711324865405185  4.8711324865405183
  4.8711324865405183  0.7288675134594812  4.8711324865405183
  4.9288675134594806  2.1288675134594812  3.4711324865405184
  3.4711324865405184  3.4711324865405184  0.6711324865405187
  0.6711324865405187  0.6711324865405187  0.6711324865405187
  3.4711324865405184  0.6711324865405187  3.4711324865405184
  0.7288675134594812  2.0711324865405185  2.0711324865405185
  4.8711324865405183  3.5288675134594811  2.0711324865405185
  3.5288675134594811  4.8711324865405183  2.0711324865405185
  2.1288675134594812  2.1288675134594812  0.6711324865405187
  2.0711324865405185  0.7288675134594812  2.0711324865405185
  2.7999999999999998  2.7999999999999998  2.7999999999999998
  4.1999999999999993  4.1999999999999993  4.1999999999999993
  1.3999999999999999  1.3999999999999999  1.3999999999999999
  2.7999999999999998  2.7999999999999998  0.0000000000000000
  1.3999999999999999  1.3999999999999999  4.1999999999999993
  0.0000000000000000  2.7999999999999998  2.7999999999999998
  4.1999999999999993  4.1999999999999993  1.3999999999999999
  1.3999999999999999  4.1999999999999993  4.1999999999999993
  1.3999999999999999  4.1999999999999993  1.3999999999999999
  0.0000000000000000  2.7999999999999998  0.0000000000000000
  2.7999999999999998  0.0000000000000000  2.7999999999999998
  4.1999999999999993  1.3999999999999999  4.1999999999999993
  4.1999999999999993  1.3999999999999999  1.3999999999999999
  2.7999999999999998  0.0000000000000000  0.0000000000000000
  0.0000000000000000  0.0000000000000000  2.7999999999999998
  0.0000000000000000  0.0000000000000000  0.0000000000000000
