H  O                                    
   1.00000000000000     
     2.8096920000000001    0.0000000000000000    0.0000000000000000
     0.0000000000000000    2.8096920000000001    0.0000000000000000
     0.0000000000000000    0.0000000000000000    2.8096920000000001
   H    O 
     4     2
Direct
  0.7828776403500228  0.7828776403500228  0.2171223596499772
  0.2171223596499772  0.2171223596499772  0.2171223596499772
  0.2828776403500228  0.7171223596499772  0.7171223596499772
  0.7171223596499772  0.2828776403500228  0.7171223596499772
  0.0000000000000000  0.0000000000000000  0.0000000000000000
  0.5000000000000000  0.5000000000000000  0.5000000000000000
 
  0.00000000E+00  0.00000000E+00  0.00000000E+00
  0.00000000E+00  0.00000000E+00  0.00000000E+00
  0.00000000E+00  0.00000000E+00  0.00000000E+00
  0.00000000E+00  0.00000000E+00  0.00000000E+00
  0.00000000E+00  0.00000000E+00  0.00000000E+00
  0.00000000E+00  0.00000000E+00  0.00000000E+00
