H  O 
 1.0000000000000000
     5.5999999999999996    0.0000000000000000    0.0000000000000000
     0.0000000000000000    5.5999999999999996    0.0000000000000000
     0.0000000000000000    0.0000000000000000    5.5999999999999996
 H   O  
  32  16
Cartesian
  0.8991858428704208  4.7008141571295781  4.7008141571295781
  1.9008141571295789  3.6991858428704210  4.7008141571295781
  5.0991858428704209  3.3008141571295786  5.0991858428704209
  3.6991858428704210  0.8991858428704208  0.8991858428704208
  4.7008141571295781  1.9008141571295789  0.8991858428704208
  5.0991858428704209  0.5008141571295791  2.2991858428704206
  3.3008141571295786  2.2991858428704206  2.2991858428704206
  0.8991858428704208  3.6991858428704210  0.8991858428704208
  2.2991858428704206  5.0991858428704209  3.3008141571295786
  1.9008141571295789  4.7008141571295781  0.8991858428704208
  0.5008141571295791  5.0991858428704209  2.2991858428704206
  0.8991858428704208  0.8991858428704208  3.6991858428704210
  1.9008141571295789  1.9008141571295789  3.6991858428704210
  2.2991858428704206  0.5008141571295791  5.0991858428704209
  0.5008141571295791  2.2991858428704206  5.0991858428704209
  3.6991858428704210  3.6991858428704210  3.6991858428704210
  4.7008141571295781  4.7008141571295781  3.6991858428704210
  2.2991858428704206  3.3008141571295786  2.2991858428704206
  0.5008141571295791  3.3008141571295786  3.3008141571295786
  3.3008141571295786  5.0991858428704209  5.0991858428704209
  5.0991858428704209  5.0991858428704209  0.5008141571295791
  3.6991858428704210  1.9008141571295789  4.7008141571295781
  4.7008141571295781  0.8991858428704208  4.7008141571295781
  5.0991858428704209  2.2991858428704206  3.3008141571295786
  3.3008141571295786  3.3008141571295786  0.5008141571295791
  0.5008141571295791  0.5008141571295791  0.5008141571295791
  3.3008141571295786  0.5008141571295791  3.3008141571295786
  0.8991858428704208  1.9008141571295789  1.9008141571295789
  4.7008141571295781  3.6991858428704210  1.9008141571295789
  3.6991858428704210  4.7008141571295781  1.9008141571295789
  2.2991858428704206  2.2991858428704206  0.5008141571295791
  1.9008141571295789  0.8991858428704208  1.9008141571295789
  2.7999999999999998  2.7999999999999998  2.7999999999999998
  4.1999999999999993  4.1999999999999993  4.1999999999999993
  1.3999999999999999  1.3999999999999999  1.3999999999999999
  2.7999999999999998  2.7999999999999998  0.0000000000000000
  1.3999999999999999  1.3999999999999999  4.1999999999999993
  0.0000000000000000  2.7999999999999998  2.7999999999999998
  4.1999999999999993  4.1999999999999993  1.3999999999999999
  1.3999999999999999  4.1999999999999993  4.1999999999999993
  1.3999999999999999  4.1999999999999993  1.3999999999999999
  0.0000000000000000  2.7999999999999998  0.0000000000000000
  2.7999999999999998  0.0000000000000000  2.7999999999999998
  4.1999999999999993  1.3999999999999999  4.1999999999999993
  4.1999999999999993  1.3999999999999999  1.3999999999999999
  2.7999999999999998  0.0000000000000000  0.0000000000000000
  0.0000000000000000  0.0000000000000000  2.7999999999999998
  0.0000000000000000  0.0000000000000000  0.0000000000000000
