H  O 
 1.0000000000000000
     5.5999999999999996    0.0000000000000000    0.0000000000000000
     0.0000000000000000    5.5999999999999996    0.0000000000000000
     0.0000000000000000    0.0000000000000000    5.5999999999999996
 H   O  
  32  16
Cartesian
  0.9540341184434353  4.6459658815565641  4.6459658815565641
  1.8459658815565645  3.7540341184434354  4.6459658815565641
  5.1540341184434357  3.2459658815565642  5.1540341184434357
  3.7540341184434354  0.9540341184434353  0.9540341184434353
  4.6459658815565641  1.8459658815565645  0.9540341184434353
  5.1540341184434357  0.4459658815565645  2.3540341184434355
  3.2459658815565642  2.3540341184434355  2.3540341184434355
  0.9540341184434353  3.7540341184434354  0.9540341184434353
  2.3540341184434355  5.1540341184434357  3.2459658815565642
  1.8459658815565645  4.6459658815565641  0.9540341184434353
  0.4459658815565645  5.1540341184434357  2.3540341184434355
  0.9540341184434353  0.9540341184434353  3.7540341184434354
  1.8459658815565645  1.8459658815565645  3.7540341184434354
  2.3540341184434355  0.4459658815565645  5.1540341184434357
  0.4459658815565645  2.3540341184434355  5.1540341184434357
  3.7540341184434354  3.7540341184434354  3.7540341184434354
  4.6459658815565641  4.6459658815565641  3.7540341184434354
  2.3540341184434355  3.2459658815565642  2.3540341184434355
  0.4459658815565645  3.2459658815565642  3.2459658815565642
  3.2459658815565642  5.1540341184434357  5.1540341184434357
  5.1540341184434357  5.1540341184434357  0.4459658815565645
  3.7540341184434354  1.8459658815565645  4.6459658815565641
  4.6459658815565641  0.9540341184434353  4.6459658815565641
  5.1540341184434357  2.3540341184434355  3.2459658815565642
  3.2459658815565642  3.2459658815565642  0.4459658815565645
  0.4459658815565645  0.4459658815565645  0.4459658815565645
  3.2459658815565642  0.4459658815565645  3.2459658815565642
  0.9540341184434353  1.8459658815565645  1.8459658815565645
  4.6459658815565641  3.7540341184434354  1.8459658815565645
  3.7540341184434354  4.6459658815565641  1.8459658815565645
  2.3540341184434355  2.3540341184434355  0.4459658815565645
  1.8459658815565645  0.9540341184434353  1.8459658815565645
  2.7999999999999998  2.7999999999999998  2.7999999999999998
  4.1999999999999993  4.1999999999999993  4.1999999999999993
  1.3999999999999999  1.3999999999999999  1.3999999999999999
  2.7999999999999998  2.7999999999999998  0.0000000000000000
  1.3999999999999999  1.3999999999999999  4.1999999999999993
  0.0000000000000000  2.7999999999999998  2.7999999999999998
  4.1999999999999993  4.1999999999999993  1.3999999999999999
  1.3999999999999999  4.1999999999999993  4.1999999999999993
  1.3999999999999999  4.1999999999999993  1.3999999999999999
  0.0000000000000000  2.7999999999999998  0.0000000000000000
  2.7999999999999998  0.0000000000000000  2.7999999999999998
  4.1999999999999993  1.3999999999999999  4.1999999999999993
  4.1999999999999993  1.3999999999999999  1.3999999999999999
  2.7999999999999998  0.0000000000000000  0.0000000000000000
  0.0000000000000000  0.0000000000000000  2.7999999999999998
  0.0000000000000000  0.0000000000000000  0.0000000000000000
