H  O 
 1.0000000000000000
     5.5999999999999996    0.0000000000000000    0.0000000000000000
     0.0000000000000000    5.5999999999999996    0.0000000000000000
     0.0000000000000000    0.0000000000000000    5.5999999999999996
 H   O  
  32  16
Cartesian
  0.8587713240271472  4.7412286759728524  4.7412286759728524
  1.9412286759728528  3.6587713240271467  4.7412286759728524
  5.0587713240271466  3.3412286759728529  5.0587713240271466
  3.6587713240271467  0.8587713240271472  0.8587713240271472
  4.7412286759728524  1.9412286759728528  0.8587713240271472
  5.0587713240271466  0.5412286759728528  2.2587713240271468
  3.3412286759728529  2.2587713240271468  2.2587713240271468
  0.8587713240271472  3.6587713240271467  0.8587713240271472
  2.2587713240271468  5.0587713240271466  3.3412286759728529
  1.9412286759728528  4.7412286759728524  0.8587713240271472
  0.5412286759728528  5.0587713240271466  2.2587713240271468
  0.8587713240271472  0.8587713240271472  3.6587713240271467
  1.9412286759728528  1.9412286759728528  3.6587713240271467
  2.2587713240271468  0.5412286759728528  5.0587713240271466
  0.5412286759728528  2.2587713240271468  5.0587713240271466
  3.6587713240271467  3.6587713240271467  3.6587713240271467
  4.7412286759728524  4.7412286759728524  3.6587713240271467
  2.2587713240271468  3.3412286759728529  2.2587713240271468
  0.5412286759728528  3.3412286759728529  3.3412286759728529
  3.3412286759728529  5.0587713240271466  5.0587713240271466
  5.0587713240271466  5.0587713240271466  0.5412286759728528
  3.6587713240271467  1.9412286759728528  4.7412286759728524
  4.7412286759728524  0.8587713240271472  4.7412286759728524
  5.0587713240271466  2.2587713240271468  3.3412286759728529
  3.3412286759728529  3.3412286759728529  0.5412286759728528
  0.5412286759728528  0.5412286759728528  0.5412286759728528
  3.3412286759728529  0.5412286759728528  3.3412286759728529
  0.8587713240271472  1.9412286759728528  1.9412286759728528
  4.7412286759728524  3.6587713240271467  1.9412286759728528
  3.6587713240271467  4.7412286759728524  1.9412286759728528
  2.2587713240271468  2.2587713240271468  0.5412286759728528
  1.9412286759728528  0.8587713240271472  1.9412286759728528
  2.7999999999999998  2.7999999999999998  2.7999999999999998
  4.1999999999999993  4.1999999999999993  4.1999999999999993
  1.3999999999999999  1.3999999999999999  1.3999999999999999
  2.7999999999999998  2.7999999999999998  0.0000000000000000
  1.3999999999999999  1.3999999999999999  4.1999999999999993
  0.0000000000000000  2.7999999999999998  2.7999999999999998
  4.1999999999999993  4.1999999999999993  1.3999999999999999
  1.3999999999999999  4.1999999999999993  4.1999999999999993
  1.3999999999999999  4.1999999999999993  1.3999999999999999
  0.0000000000000000  2.7999999999999998  0.0000000000000000
  2.7999999999999998  0.0000000000000000  2.7999999999999998
  4.1999999999999993  1.3999999999999999  4.1999999999999993
  4.1999999999999993  1.3999999999999999  1.3999999999999999
  2.7999999999999998  0.0000000000000000  0.0000000000000000
  0.0000000000000000  0.0000000000000000  2.7999999999999998
  0.0000000000000000  0.0000000000000000  0.0000000000000000
