H  O 
 1.0000000000000000
     5.5999999999999996    0.0000000000000000    0.0000000000000000
     0.0000000000000000    5.5999999999999996    0.0000000000000000
     0.0000000000000000    0.0000000000000000    5.5999999999999996
 H   O  
  32  16
Cartesian
  0.8096965511460288  4.7903034488539706  4.7903034488539706
  1.9903034488539708  3.6096965511460288  4.7903034488539706
  5.0096965511460283  3.3903034488539707  5.0096965511460283
  3.6096965511460288  0.8096965511460288  0.8096965511460288
  4.7903034488539706  1.9903034488539708  0.8096965511460288
  5.0096965511460283  0.5903034488539710  2.2096965511460289
  3.3903034488539707  2.2096965511460289  2.2096965511460289
  0.8096965511460288  3.6096965511460288  0.8096965511460288
  2.2096965511460289  5.0096965511460283  3.3903034488539707
  1.9903034488539708  4.7903034488539706  0.8096965511460288
  0.5903034488539710  5.0096965511460283  2.2096965511460289
  0.8096965511460288  0.8096965511460288  3.6096965511460288
  1.9903034488539708  1.9903034488539708  3.6096965511460288
  2.2096965511460289  0.5903034488539710  5.0096965511460283
  0.5903034488539710  2.2096965511460289  5.0096965511460283
  3.6096965511460288  3.6096965511460288  3.6096965511460288
  4.7903034488539706  4.7903034488539706  3.6096965511460288
  2.2096965511460289  3.3903034488539707  2.2096965511460289
  0.5903034488539710  3.3903034488539707  3.3903034488539707
  3.3903034488539707  5.0096965511460283  5.0096965511460283
  5.0096965511460283  5.0096965511460283  0.5903034488539710
  3.6096965511460288  1.9903034488539708  4.7903034488539706
  4.7903034488539706  0.8096965511460288  4.7903034488539706
  5.0096965511460283  2.2096965511460289  3.3903034488539707
  3.3903034488539707  3.3903034488539707  0.5903034488539710
  0.5903034488539710  0.5903034488539710  0.5903034488539710
  3.3903034488539707  0.5903034488539710  3.3903034488539707
  0.8096965511460288  1.9903034488539708  1.9903034488539708
  4.7903034488539706  3.6096965511460288  1.9903034488539708
  3.6096965511460288  4.7903034488539706  1.9903034488539708
  2.2096965511460289  2.2096965511460289  0.5903034488539710
  1.9903034488539708  0.8096965511460288  1.9903034488539708
  2.7999999999999998  2.7999999999999998  2.7999999999999998
  4.1999999999999993  4.1999999999999993  4.1999999999999993
  1.3999999999999999  1.3999999999999999  1.3999999999999999
  2.7999999999999998  2.7999999999999998  0.0000000000000000
  1.3999999999999999  1.3999999999999999  4.1999999999999993
  0.0000000000000000  2.7999999999999998  2.7999999999999998
  4.1999999999999993  4.1999999999999993  1.3999999999999999
  1.3999999999999999  4.1999999999999993  4.1999999999999993
  1.3999999999999999  4.1999999999999993  1.3999999999999999
  0.0000000000000000  2.7999999999999998  0.0000000000000000
  2.7999999999999998  0.0000000000000000  2.7999999999999998
  4.1999999999999993  1.3999999999999999  4.1999999999999993
  4.1999999999999993  1.3999999999999999  1.3999999999999999
  2.7999999999999998  0.0000000000000000  0.0000000000000000
  0.0000000000000000  0.0000000000000000  2.7999999999999998
  0.0000000000000000  0.0000000000000000  0.0000000000000000
