H  O 
 1.0000000000000000
     2.8096920000000001    0.0000000000000000    0.0000000000000000
     0.0000000000000000    2.8096920000000001    0.0000000000000000
     0.0000000000000000    0.0000000000000000    2.8096920000000001
 H   O  
   4   2
Cartesian
  2.1072690000000001  2.1072690000000001  0.7024230000000000
  0.7024230000000000  0.7024230000000000  0.7024230000000000
  0.7024230000000000  2.1072690000000001  2.1072690000000001
  2.1072690000000001  0.7024230000000000  2.1072690000000001
  0.0000000000000000  0.0000000000000000  0.0000000000000000
  1.4048460000000000  1.4048460000000000  1.4048460000000000
