H  O 
 1.0000000000000000
     5.5999999999999996    0.0000000000000000    0.0000000000000000
     0.0000000000000000    5.5999999999999996    0.0000000000000000
     0.0000000000000000    0.0000000000000000    5.5999999999999996
 H   O  
  32  16
Cartesian
  0.8645448267190433  4.7354551732809558  4.7354551732809558
  1.9354551732809564  3.6645448267190432  4.7354551732809558
  5.0645448267190432  3.3354551732809563  5.0645448267190432
  3.6645448267190432  0.8645448267190433  0.8645448267190433
  4.7354551732809558  1.9354551732809564  0.8645448267190433
  5.0645448267190432  0.5354551732809566  2.2645448267190433
  3.3354551732809563  2.2645448267190433  2.2645448267190433
  0.8645448267190433  3.6645448267190432  0.8645448267190433
  2.2645448267190433  5.0645448267190432  3.3354551732809563
  1.9354551732809564  4.7354551732809558  0.8645448267190433
  0.5354551732809566  5.0645448267190432  2.2645448267190433
  0.8645448267190433  0.8645448267190433  3.6645448267190432
  1.9354551732809564  1.9354551732809564  3.6645448267190432
  2.2645448267190433  0.5354551732809566  5.0645448267190432
  0.5354551732809566  2.2645448267190433  5.0645448267190432
  3.6645448267190432  3.6645448267190432  3.6645448267190432
  4.7354551732809558  4.7354551732809558  3.6645448267190432
  2.2645448267190433  3.3354551732809563  2.2645448267190433
  0.5354551732809566  3.3354551732809563  3.3354551732809563
  3.3354551732809563  5.0645448267190432  5.0645448267190432
  5.0645448267190432  5.0645448267190432  0.5354551732809566
  3.6645448267190432  1.9354551732809564  4.7354551732809558
  4.7354551732809558  0.8645448267190433  4.7354551732809558
  5.0645448267190432  2.2645448267190433  3.3354551732809563
  3.3354551732809563  3.3354551732809563  0.5354551732809566
  0.5354551732809566  0.5354551732809566  0.5354551732809566
  3.3354551732809563  0.5354551732809566  3.3354551732809563
  0.8645448267190433  1.9354551732809564  1.9354551732809564
  4.7354551732809558  3.6645448267190432  1.9354551732809564
  3.6645448267190432  4.7354551732809558  1.9354551732809564
  2.2645448267190433  2.2645448267190433  0.5354551732809566
  1.9354551732809564  0.8645448267190433  1.9354551732809564
  2.7999999999999998  2.7999999999999998  2.7999999999999998
  4.1999999999999993  4.1999999999999993  4.1999999999999993
  1.3999999999999999  1.3999999999999999  1.3999999999999999
  2.7999999999999998  2.7999999999999998  0.0000000000000000
  1.3999999999999999  1.3999999999999999  4.1999999999999993
  0.0000000000000000  2.7999999999999998  2.7999999999999998
  4.1999999999999993  4.1999999999999993  1.3999999999999999
  1.3999999999999999  4.1999999999999993  4.1999999999999993
  1.3999999999999999  4.1999999999999993  1.3999999999999999
  0.0000000000000000  2.7999999999999998  0.0000000000000000
  2.7999999999999998  0.0000000000000000  2.7999999999999998
  4.1999999999999993  1.3999999999999999  4.1999999999999993
  4.1999999999999993  1.3999999999999999  1.3999999999999999
  2.7999999999999998  0.0000000000000000  0.0000000000000000
  0.0000000000000000  0.0000000000000000  2.7999999999999998
  0.0000000000000000  0.0000000000000000  0.0000000000000000
