H  O 
 1.0000000000000000
     5.5999999999999996    0.0000000000000000    0.0000000000000000
     0.0000000000000000    5.5999999999999996    0.0000000000000000
     0.0000000000000000    0.0000000000000000    5.5999999999999996
 H   O  
  32  16
Cartesian
  0.7057735026918961  4.8942264973081038  4.8942264973081038
  2.0942264973081035  3.5057735026918957  4.8942264973081038
  4.9057735026918952  3.4942264973081034  4.9057735026918952
  3.5057735026918957  0.7057735026918961  0.7057735026918961
  4.8942264973081038  2.0942264973081035  0.7057735026918961
  4.9057735026918952  0.6942264973081037  2.1057735026918962
  3.4942264973081034  2.1057735026918962  2.1057735026918962
  0.7057735026918961  3.5057735026918957  0.7057735026918961
  2.1057735026918962  4.9057735026918952  3.4942264973081034
  2.0942264973081035  4.8942264973081038  0.7057735026918961
  0.6942264973081037  4.9057735026918952  2.1057735026918962
  0.7057735026918961  0.7057735026918961  3.5057735026918957
  2.0942264973081035  2.0942264973081035  3.5057735026918957
  2.1057735026918962  0.6942264973081037  4.9057735026918952
  0.6942264973081037  2.1057735026918962  4.9057735026918952
  3.5057735026918957  3.5057735026918957  3.5057735026918957
  4.8942264973081038  4.8942264973081038  3.5057735026918957
  2.1057735026918962  3.4942264973081034  2.1057735026918962
  0.6942264973081037  3.4942264973081034  3.4942264973081034
  3.4942264973081034  4.9057735026918952  4.9057735026918952
  4.9057735026918952  4.9057735026918952  0.6942264973081037
  3.5057735026918957  2.0942264973081035  4.8942264973081038
  4.8942264973081038  0.7057735026918961  4.8942264973081038
  4.9057735026918952  2.1057735026918962  3.4942264973081034
  3.4942264973081034  3.4942264973081034  0.6942264973081037
  0.6942264973081037  0.6942264973081037  0.6942264973081037
  3.4942264973081034  0.6942264973081037  3.4942264973081034
  0.7057735026918961  2.0942264973081035  2.0942264973081035
  4.8942264973081038  3.5057735026918957  2.0942264973081035
  3.5057735026918957  4.8942264973081038  2.0942264973081035
  2.1057735026918962  2.1057735026918962  0.6942264973081037
  2.0942264973081035  0.7057735026918961  2.0942264973081035
  2.7999999999999998  2.7999999999999998  2.7999999999999998
  4.1999999999999993  4.1999999999999993  4.1999999999999993
  1.3999999999999999  1.3999999999999999  1.3999999999999999
  2.7999999999999998  2.7999999999999998  0.0000000000000000
  1.3999999999999999  1.3999999999999999  4.1999999999999993
  0.0000000000000000  2.7999999999999998  2.7999999999999998
  4.1999999999999993  4.1999999999999993  1.3999999999999999
  1.3999999999999999  4.1999999999999993  4.1999999999999993
  1.3999999999999999  4.1999999999999993  1.3999999999999999
  0.0000000000000000  2.7999999999999998  0.0000000000000000
  2.7999999999999998  0.0000000000000000  2.7999999999999998
  4.1999999999999993  1.3999999999999999  4.1999999999999993
  4.1999999999999993  1.3999999999999999  1.3999999999999999
  2.7999999999999998  0.0000000000000000  0.0000000000000000
  0.0000000000000000  0.0000000000000000  2.7999999999999998
  0.0000000000000000  0.0000000000000000  0.0000000000000000
