H  O 
 1.0000000000000000
     5.5999999999999996    0.0000000000000000    0.0000000000000000
     0.0000000000000000    5.5999999999999996    0.0000000000000000
     0.0000000000000000    0.0000000000000000    5.5999999999999996
 H   O  
  32  16
Cartesian
  0.8472243186433546  4.7527756813566446  4.7527756813566446
  1.9527756813566453  3.6472243186433544  4.7527756813566446
  5.0472243186433543  3.3527756813566452  5.0472243186433543
  3.6472243186433544  0.8472243186433546  0.8472243186433546
  4.7527756813566446  1.9527756813566453  0.8472243186433546
  5.0472243186433543  0.5527756813566453  2.2472243186433545
  3.3527756813566452  2.2472243186433545  2.2472243186433545
  0.8472243186433546  3.6472243186433544  0.8472243186433546
  2.2472243186433545  5.0472243186433543  3.3527756813566452
  1.9527756813566453  4.7527756813566446  0.8472243186433546
  0.5527756813566453  5.0472243186433543  2.2472243186433545
  0.8472243186433546  0.8472243186433546  3.6472243186433544
  1.9527756813566453  1.9527756813566453  3.6472243186433544
  2.2472243186433545  0.5527756813566453  5.0472243186433543
  0.5527756813566453  2.2472243186433545  5.0472243186433543
  3.6472243186433544  3.6472243186433544  3.6472243186433544
  4.7527756813566446  4.7527756813566446  3.6472243186433544
  2.2472243186433545  3.3527756813566452  2.2472243186433545
  0.5527756813566453  3.3527756813566452  3.3527756813566452
  3.3527756813566452  5.0472243186433543  5.0472243186433543
  5.0472243186433543  5.0472243186433543  0.5527756813566453
  3.6472243186433544  1.9527756813566453  4.7527756813566446
  4.7527756813566446  0.8472243186433546  4.7527756813566446
  5.0472243186433543  2.2472243186433545  3.3527756813566452
  3.3527756813566452  3.3527756813566452  0.5527756813566453
  0.5527756813566453  0.5527756813566453  0.5527756813566453
  3.3527756813566452  0.5527756813566453  3.3527756813566452
  0.8472243186433546  1.9527756813566453  1.9527756813566453
  4.7527756813566446  3.6472243186433544  1.9527756813566453
  3.6472243186433544  4.7527756813566446  1.9527756813566453
  2.2472243186433545  2.2472243186433545  0.5527756813566453
  1.9527756813566453  0.8472243186433546  1.9527756813566453
  2.7999999999999998  2.7999999999999998  2.7999999999999998
  4.1999999999999993  4.1999999999999993  4.1999999999999993
  1.3999999999999999  1.3999999999999999  1.3999999999999999
  2.7999999999999998  2.7999999999999998  0.0000000000000000
  1.3999999999999999  1.3999999999999999  4.1999999999999993
  0.0000000000000000  2.7999999999999998  2.7999999999999998
  4.1999999999999993  4.1999999999999993  1.3999999999999999
  1.3999999999999999  4.1999999999999993  4.1999999999999993
  1.3999999999999999  4.1999999999999993  1.3999999999999999
  0.0000000000000000  2.7999999999999998  0.0000000000000000
  2.7999999999999998  0.0000000000000000  2.7999999999999998
  4.1999999999999993  1.3999999999999999  4.1999999999999993
  4.1999999999999993  1.3999999999999999  1.3999999999999999
  2.7999999999999998  0.0000000000000000  0.0000000000000000
  0.0000000000000000  0.0000000000000000  2.7999999999999998
  0.0000000000000000  0.0000000000000000  0.0000000000000000
