H  O 
 1.0000000000000000
     5.5999999999999996    0.0000000000000000    0.0000000000000000
     0.0000000000000000    5.5999999999999996    0.0000000000000000
     0.0000000000000000    0.0000000000000000    5.5999999999999996
 H   O  
  32  16
Cartesian
  0.7490747728811181  4.8509252271188812  4.8509252271188812
  2.0509252271188814  3.5490747728811178  4.8509252271188812
  4.9490747728811186  3.4509252271188817  4.9490747728811186
  3.5490747728811178  0.7490747728811181  0.7490747728811181
  4.8509252271188812  2.0509252271188814  0.7490747728811181
  4.9490747728811186  0.6509252271188818  2.1490747728811184
  3.4509252271188817  2.1490747728811184  2.1490747728811184
  0.7490747728811181  3.5490747728811178  0.7490747728811181
  2.1490747728811184  4.9490747728811186  3.4509252271188817
  2.0509252271188814  4.8509252271188812  0.7490747728811181
  0.6509252271188818  4.9490747728811186  2.1490747728811184
  0.7490747728811181  0.7490747728811181  3.5490747728811178
  2.0509252271188814  2.0509252271188814  3.5490747728811178
  2.1490747728811184  0.6509252271188818  4.9490747728811186
  0.6509252271188818  2.1490747728811184  4.9490747728811186
  3.5490747728811178  3.5490747728811178  3.5490747728811178
  4.8509252271188812  4.8509252271188812  3.5490747728811178
  2.1490747728811184  3.4509252271188817  2.1490747728811184
  0.6509252271188818  3.4509252271188817  3.4509252271188817
  3.4509252271188817  4.9490747728811186  4.9490747728811186
  4.9490747728811186  4.9490747728811186  0.6509252271188818
  3.5490747728811178  2.0509252271188814  4.8509252271188812
  4.8509252271188812  0.7490747728811181  4.8509252271188812
  4.9490747728811186  2.1490747728811184  3.4509252271188817
  3.4509252271188817  3.4509252271188817  0.6509252271188818
  0.6509252271188818  0.6509252271188818  0.6509252271188818
  3.4509252271188817  0.6509252271188818  3.4509252271188817
  0.7490747728811181  2.0509252271188814  2.0509252271188814
  4.8509252271188812  3.5490747728811178  2.0509252271188814
  3.5490747728811178  4.8509252271188812  2.0509252271188814
  2.1490747728811184  2.1490747728811184  0.6509252271188818
  2.0509252271188814  0.7490747728811181  2.0509252271188814
  2.7999999999999998  2.7999999999999998  2.7999999999999998
  4.1999999999999993  4.1999999999999993  4.1999999999999993
  1.3999999999999999  1.3999999999999999  1.3999999999999999
  2.7999999999999998  2.7999999999999998  0.0000000000000000
  1.3999999999999999  1.3999999999999999  4.1999999999999993
  0.0000000000000000  2.7999999999999998  2.7999999999999998
  4.1999999999999993  4.1999999999999993  1.3999999999999999
  1.3999999999999999  4.1999999999999993  4.1999999999999993
  1.3999999999999999  4.1999999999999993  1.3999999999999999
  0.0000000000000000  2.7999999999999998  0.0000000000000000
  2.7999999999999998  0.0000000000000000  2.7999999999999998
  4.1999999999999993  1.3999999999999999  4.1999999999999993
  4.1999999999999993  1.3999999999999999  1.3999999999999999
  2.7999999999999998  0.0000000000000000  0.0000000000000000
  0.0000000000000000  0.0000000000000000  2.7999999999999998
  0.0000000000000000  0.0000000000000000  0.0000000000000000
