H  O 
 1.0000000000000000
     2.8096920000000001    0.0000000000000000    0.0000000000000000
     0.0000000000000000    2.8096920000000001    0.0000000000000000
     0.0000000000000000    0.0000000000000000    2.8096920000000001
 H   O  
   4   2
Cartesian
  2.1996450430703400  2.1996450430703400  0.6100469569296599
  0.6100469569296599  0.6100469569296599  0.6100469569296599
  0.7947990430703401  2.0148929569296601  2.0148929569296601
  2.0148929569296601  0.7947990430703401  2.0148929569296601
  0.0000000000000000  0.0000000000000000  0.0000000000000000
  1.4048460000000000  1.4048460000000000  1.4048460000000000
