H  O 
 1.0000000000000000
     5.5999999999999996    0.0000000000000000    0.0000000000000000
     0.0000000000000000    5.5999999999999996    0.0000000000000000
     0.0000000000000000    0.0000000000000000    5.5999999999999996
 H   O  
  32  16
Cartesian
  0.7808290376865475  4.8191709623134527  4.8191709623134527
  2.0191709623134524  3.5808290376865477  4.8191709623134527
  4.9808290376865472  3.4191709623134519  4.9808290376865472
  3.5808290376865477  0.7808290376865475  0.7808290376865475
  4.8191709623134527  2.0191709623134524  0.7808290376865475
  4.9808290376865472  0.6191709623134524  2.1808290376865473
  3.4191709623134519  2.1808290376865473  2.1808290376865473
  0.7808290376865475  3.5808290376865477  0.7808290376865475
  2.1808290376865473  4.9808290376865472  3.4191709623134519
  2.0191709623134524  4.8191709623134527  0.7808290376865475
  0.6191709623134524  4.9808290376865472  2.1808290376865473
  0.7808290376865475  0.7808290376865475  3.5808290376865477
  2.0191709623134524  2.0191709623134524  3.5808290376865477
  2.1808290376865473  0.6191709623134524  4.9808290376865472
  0.6191709623134524  2.1808290376865473  4.9808290376865472
  3.5808290376865477  3.5808290376865477  3.5808290376865477
  4.8191709623134527  4.8191709623134527  3.5808290376865477
  2.1808290376865473  3.4191709623134519  2.1808290376865473
  0.6191709623134524  3.4191709623134519  3.4191709623134519
  3.4191709623134519  4.9808290376865472  4.9808290376865472
  4.9808290376865472  4.9808290376865472  0.6191709623134524
  3.5808290376865477  2.0191709623134524  4.8191709623134527
  4.8191709623134527  0.7808290376865475  4.8191709623134527
  4.9808290376865472  2.1808290376865473  3.4191709623134519
  3.4191709623134519  3.4191709623134519  0.6191709623134524
  0.6191709623134524  0.6191709623134524  0.6191709623134524
  3.4191709623134519  0.6191709623134524  3.4191709623134519
  0.7808290376865475  2.0191709623134524  2.0191709623134524
  4.8191709623134527  3.5808290376865477  2.0191709623134524
  3.5808290376865477  4.8191709623134527  2.0191709623134524
  2.1808290376865473  2.1808290376865473  0.6191709623134524
  2.0191709623134524  0.7808290376865475  2.0191709623134524
  2.7999999999999998  2.7999999999999998  2.7999999999999998
  4.1999999999999993  4.1999999999999993  4.1999999999999993
  1.3999999999999999  1.3999999999999999  1.3999999999999999
  2.7999999999999998  2.7999999999999998  0.0000000000000000
  1.3999999999999999  1.3999999999999999  4.1999999999999993
  0.0000000000000000  2.7999999999999998  2.7999999999999998
  4.1999999999999993  4.1999999999999993  1.3999999999999999
  1.3999999999999999  4.1999999999999993  4.1999999999999993
  1.3999999999999999  4.1999999999999993  1.3999999999999999
  0.0000000000000000  2.7999999999999998  0.0000000000000000
  2.7999999999999998  0.0000000000000000  2.7999999999999998
  4.1999999999999993  1.3999999999999999  4.1999999999999993
  4.1999999999999993  1.3999999999999999  1.3999999999999999
  2.7999999999999998  0.0000000000000000  0.0000000000000000
  0.0000000000000000  0.0000000000000000  2.7999999999999998
  0.0000000000000000  0.0000000000000000  0.0000000000000000
