H  O 
 1.0000000000000000
     5.5999999999999996    0.0000000000000000    0.0000000000000000
     0.0000000000000000    5.5999999999999996    0.0000000000000000
     0.0000000000000000    0.0000000000000000    5.5999999999999996
 H   O  
  32  16
Cartesian
  0.7663952809568070  4.8336047190431932  4.8336047190431932
  2.0336047190431930  3.5663952809568067  4.8336047190431932
  4.9663952809568066  3.4336047190431929  4.9663952809568066
  3.5663952809568067  0.7663952809568070  0.7663952809568070
  4.8336047190431932  2.0336047190431930  0.7663952809568070
  4.9663952809568066  0.6336047190431930  2.1663952809568068
  3.4336047190431929  2.1663952809568068  2.1663952809568068
  0.7663952809568070  3.5663952809568067  0.7663952809568070
  2.1663952809568068  4.9663952809568066  3.4336047190431929
  2.0336047190431930  4.8336047190431932  0.7663952809568070
  0.6336047190431930  4.9663952809568066  2.1663952809568068
  0.7663952809568070  0.7663952809568070  3.5663952809568067
  2.0336047190431930  2.0336047190431930  3.5663952809568067
  2.1663952809568068  0.6336047190431930  4.9663952809568066
  0.6336047190431930  2.1663952809568068  4.9663952809568066
  3.5663952809568067  3.5663952809568067  3.5663952809568067
  4.8336047190431932  4.8336047190431932  3.5663952809568067
  2.1663952809568068  3.4336047190431929  2.1663952809568068
  0.6336047190431930  3.4336047190431929  3.4336047190431929
  3.4336047190431929  4.9663952809568066  4.9663952809568066
  4.9663952809568066  4.9663952809568066  0.6336047190431930
  3.5663952809568067  2.0336047190431930  4.8336047190431932
  4.8336047190431932  0.7663952809568070  4.8336047190431932
  4.9663952809568066  2.1663952809568068  3.4336047190431929
  3.4336047190431929  3.4336047190431929  0.6336047190431930
  0.6336047190431930  0.6336047190431930  0.6336047190431930
  3.4336047190431929  0.6336047190431930  3.4336047190431929
  0.7663952809568070  2.0336047190431930  2.0336047190431930
  4.8336047190431932  3.5663952809568067  2.0336047190431930
  3.5663952809568067  4.8336047190431932  2.0336047190431930
  2.1663952809568068  2.1663952809568068  0.6336047190431930
  2.0336047190431930  0.7663952809568070  2.0336047190431930
  2.7999999999999998  2.7999999999999998  2.7999999999999998
  4.1999999999999993  4.1999999999999993  4.1999999999999993
  1.3999999999999999  1.3999999999999999  1.3999999999999999
  2.7999999999999998  2.7999999999999998  0.0000000000000000
  1.3999999999999999  1.3999999999999999  4.1999999999999993
  0.0000000000000000  2.7999999999999998  2.7999999999999998
  4.1999999999999993  4.1999999999999993  1.3999999999999999
  1.3999999999999999  4.1999999999999993  4.1999999999999993
  1.3999999999999999  4.1999999999999993  1.3999999999999999
  0.0000000000000000  2.7999999999999998  0.0000000000000000
  2.7999999999999998  0.0000000000000000  2.7999999999999998
  4.1999999999999993  1.3999999999999999  4.1999999999999993
  4.1999999999999993  1.3999999999999999  1.3999999999999999
  2.7999999999999998  0.0000000000000000  0.0000000000000000
  0.0000000000000000  0.0000000000000000  2.7999999999999998
  0.0000000000000000  0.0000000000000000  0.0000000000000000
