H  O 
 1.0000000000000000
     5.5999999999999996    0.0000000000000000    0.0000000000000000
     0.0000000000000000    5.5999999999999996    0.0000000000000000
     0.0000000000000000    0.0000000000000000    5.5999999999999996
 H   O  
  32  16
Cartesian
  0.8789785834487839  4.7210214165512152  4.7210214165512152
  1.9210214165512158  3.6789785834487834  4.7210214165512152
  5.0789785834487837  3.3210214165512162  5.0789785834487837
  3.6789785834487834  0.8789785834487839  0.8789785834487839
  4.7210214165512152  1.9210214165512158  0.8789785834487839
  5.0789785834487837  0.5210214165512160  2.2789785834487839
  3.3210214165512162  2.2789785834487839  2.2789785834487839
  0.8789785834487839  3.6789785834487834  0.8789785834487839
  2.2789785834487839  5.0789785834487837  3.3210214165512162
  1.9210214165512158  4.7210214165512152  0.8789785834487839
  0.5210214165512160  5.0789785834487837  2.2789785834487839
  0.8789785834487839  0.8789785834487839  3.6789785834487834
  1.9210214165512158  1.9210214165512158  3.6789785834487834
  2.2789785834487839  0.5210214165512160  5.0789785834487837
  0.5210214165512160  2.2789785834487839  5.0789785834487837
  3.6789785834487834  3.6789785834487834  3.6789785834487834
  4.7210214165512152  4.7210214165512152  3.6789785834487834
  2.2789785834487839  3.3210214165512162  2.2789785834487839
  0.5210214165512160  3.3210214165512162  3.3210214165512162
  3.3210214165512162  5.0789785834487837  5.0789785834487837
  5.0789785834487837  5.0789785834487837  0.5210214165512160
  3.6789785834487834  1.9210214165512158  4.7210214165512152
  4.7210214165512152  0.8789785834487839  4.7210214165512152
  5.0789785834487837  2.2789785834487839  3.3210214165512162
  3.3210214165512162  3.3210214165512162  0.5210214165512160
  0.5210214165512160  0.5210214165512160  0.5210214165512160
  3.3210214165512162  0.5210214165512160  3.3210214165512162
  0.8789785834487839  1.9210214165512158  1.9210214165512158
  4.7210214165512152  3.6789785834487834  1.9210214165512158
  3.6789785834487834  4.7210214165512152  1.9210214165512158
  2.2789785834487839  2.2789785834487839  0.5210214165512160
  1.9210214165512158  0.8789785834487839  1.9210214165512158
  2.7999999999999998  2.7999999999999998  2.7999999999999998
  4.1999999999999993  4.1999999999999993  4.1999999999999993
  1.3999999999999999  1.3999999999999999  1.3999999999999999
  2.7999999999999998  2.7999999999999998  0.0000000000000000
  1.3999999999999999  1.3999999999999999  4.1999999999999993
  0.0000000000000000  2.7999999999999998  2.7999999999999998
  4.1999999999999993  4.1999999999999993  1.3999999999999999
  1.3999999999999999  4.1999999999999993  4.1999999999999993
  1.3999999999999999  4.1999999999999993  1.3999999999999999
  0.0000000000000000  2.7999999999999998  0.0000000000000000
  2.7999999999999998  0.0000000000000000  2.7999999999999998
  4.1999999999999993  1.3999999999999999  4.1999999999999993
  4.1999999999999993  1.3999999999999999  1.3999999999999999
  2.7999999999999998  0.0000000000000000  0.0000000000000000
  0.0000000000000000  0.0000000000000000  2.7999999999999998
  0.0000000000000000  0.0000000000000000  0.0000000000000000
