H  O 
 1.0000000000000000
     5.5999999999999996    0.0000000000000000    0.0000000000000000
     0.0000000000000000    5.5999999999999996    0.0000000000000000
     0.0000000000000000    0.0000000000000000    5.5999999999999996
 H   O  
  32  16
Cartesian
  0.7461880215351701  4.8538119784648295  4.8538119784648295
  2.0538119784648297  3.5461880215351700  4.8538119784648295
  4.9461880215351695  3.4538119784648296  4.9461880215351695
  3.5461880215351700  0.7461880215351701  0.7461880215351701
  4.8538119784648295  2.0538119784648297  0.7461880215351701
  4.9461880215351695  0.6538119784648299  2.1461880215351701
  3.4538119784648296  2.1461880215351701  2.1461880215351701
  0.7461880215351701  3.5461880215351700  0.7461880215351701
  2.1461880215351701  4.9461880215351695  3.4538119784648296
  2.0538119784648297  4.8538119784648295  0.7461880215351701
  0.6538119784648299  4.9461880215351695  2.1461880215351701
  0.7461880215351701  0.7461880215351701  3.5461880215351700
  2.0538119784648297  2.0538119784648297  3.5461880215351700
  2.1461880215351701  0.6538119784648299  4.9461880215351695
  0.6538119784648299  2.1461880215351701  4.9461880215351695
  3.5461880215351700  3.5461880215351700  3.5461880215351700
  4.8538119784648295  4.8538119784648295  3.5461880215351700
  2.1461880215351701  3.4538119784648296  2.1461880215351701
  0.6538119784648299  3.4538119784648296  3.4538119784648296
  3.4538119784648296  4.9461880215351695  4.9461880215351695
  4.9461880215351695  4.9461880215351695  0.6538119784648299
  3.5461880215351700  2.0538119784648297  4.8538119784648295
  4.8538119784648295  0.7461880215351701  4.8538119784648295
  4.9461880215351695  2.1461880215351701  3.4538119784648296
  3.4538119784648296  3.4538119784648296  0.6538119784648299
  0.6538119784648299  0.6538119784648299  0.6538119784648299
  3.4538119784648296  0.6538119784648299  3.4538119784648296
  0.7461880215351701  2.0538119784648297  2.0538119784648297
  4.8538119784648295  3.5461880215351700  2.0538119784648297
  3.5461880215351700  4.8538119784648295  2.0538119784648297
  2.1461880215351701  2.1461880215351701  0.6538119784648299
  2.0538119784648297  0.7461880215351701  2.0538119784648297
  2.7999999999999998  2.7999999999999998  2.7999999999999998
  4.1999999999999993  4.1999999999999993  4.1999999999999993
  1.3999999999999999  1.3999999999999999  1.3999999999999999
  2.7999999999999998  2.7999999999999998  0.0000000000000000
  1.3999999999999999  1.3999999999999999  4.1999999999999993
  0.0000000000000000  2.7999999999999998  2.7999999999999998
  4.1999999999999993  4.1999999999999993  1.3999999999999999
  1.3999999999999999  4.1999999999999993  4.1999999999999993
  1.3999999999999999  4.1999999999999993  1.3999999999999999
  0.0000000000000000  2.7999999999999998  0.0000000000000000
  2.7999999999999998  0.0000000000000000  2.7999999999999998
  4.1999999999999993  1.3999999999999999  4.1999999999999993
  4.1999999999999993  1.3999999999999999  1.3999999999999999
  2.7999999999999998  0.0000000000000000  0.0000000000000000
  0.0000000000000000  0.0000000000000000  2.7999999999999998
  0.0000000000000000  0.0000000000000000  0.0000000000000000
