H  O 
 1.0000000000000000
     2.8096920000000001    0.0000000000000000    0.0000000000000000
     0.0000000000000000    2.8096920000000001    0.0000000000000000
     0.0000000000000000    0.0000000000000000    2.8096920000000001
 H   O  
   4   2
Cartesian
  0.6158204596215562  0.6158204596215562  0.6158204596215562
  2.1938715403784439  2.1938715403784439  0.6158204596215562
  2.0206664596215562  0.7890255403784440  2.0206664596215562
  0.7890255403784440  2.0206664596215562  2.0206664596215562
  0.0000000000000000  0.0000000000000000  0.0000000000000000
  1.4048460000000000  1.4048460000000000  1.4048460000000000
