H  O 
 1.0000000000000000
     5.5999999999999996    0.0000000000000000    0.0000000000000000
     0.0000000000000000    5.5999999999999996    0.0000000000000000
     0.0000000000000000    0.0000000000000000    5.5999999999999996
 H   O  
  32  16
Cartesian
  0.9626943724812798  4.6373056275187201  4.6373056275187201
  1.8373056275187201  3.7626943724812794  4.6373056275187201
  5.1626943724812788  3.2373056275187202  5.1626943724812788
  3.7626943724812794  0.9626943724812798  0.9626943724812798
  4.6373056275187201  1.8373056275187201  0.9626943724812798
  5.1626943724812788  0.4373056275187202  2.3626943724812799
  3.2373056275187202  2.3626943724812799  2.3626943724812799
  0.9626943724812798  3.7626943724812794  0.9626943724812798
  2.3626943724812799  5.1626943724812788  3.2373056275187202
  1.8373056275187201  4.6373056275187201  0.9626943724812798
  0.4373056275187202  5.1626943724812788  2.3626943724812799
  0.9626943724812798  0.9626943724812798  3.7626943724812794
  1.8373056275187201  1.8373056275187201  3.7626943724812794
  2.3626943724812799  0.4373056275187202  5.1626943724812788
  0.4373056275187202  2.3626943724812799  5.1626943724812788
  3.7626943724812794  3.7626943724812794  3.7626943724812794
  4.6373056275187201  4.6373056275187201  3.7626943724812794
  2.3626943724812799  3.2373056275187202  2.3626943724812799
  0.4373056275187202  3.2373056275187202  3.2373056275187202
  3.2373056275187202  5.1626943724812788  5.1626943724812788
  5.1626943724812788  5.1626943724812788  0.4373056275187202
  3.7626943724812794  1.8373056275187201  4.6373056275187201
  4.6373056275187201  0.9626943724812798  4.6373056275187201
  5.1626943724812788  2.3626943724812799  3.2373056275187202
  3.2373056275187202  3.2373056275187202  0.4373056275187202
  0.4373056275187202  0.4373056275187202  0.4373056275187202
  3.2373056275187202  0.4373056275187202  3.2373056275187202
  0.9626943724812798  1.8373056275187201  1.8373056275187201
  4.6373056275187201  3.7626943724812794  1.8373056275187201
  3.7626943724812794  4.6373056275187201  1.8373056275187201
  2.3626943724812799  2.3626943724812799  0.4373056275187202
  1.8373056275187201  0.9626943724812798  1.8373056275187201
  2.7999999999999998  2.7999999999999998  2.7999999999999998
  4.1999999999999993  4.1999999999999993  4.1999999999999993
  1.3999999999999999  1.3999999999999999  1.3999999999999999
  2.7999999999999998  2.7999999999999998  0.0000000000000000
  1.3999999999999999  1.3999999999999999  4.1999999999999993
  0.0000000000000000  2.7999999999999998  2.7999999999999998
  4.1999999999999993  4.1999999999999993  1.3999999999999999
  1.3999999999999999  4.1999999999999993  4.1999999999999993
  1.3999999999999999  4.1999999999999993  1.3999999999999999
  0.0000000000000000  2.7999999999999998  0.0000000000000000
  2.7999999999999998  0.0000000000000000  2.7999999999999998
  4.1999999999999993  1.3999999999999999  4.1999999999999993
  4.1999999999999993  1.3999999999999999  1.3999999999999999
  2.7999999999999998  0.0000000000000000  0.0000000000000000
  0.0000000000000000  0.0000000000000000  2.7999999999999998
  0.0000000000000000  0.0000000000000000  0.0000000000000000
