PREC=A
ENCUT=1500
ISYM=0
ALGO=fast
EDIFF=1.000000e-06
LREAL=A
NPAR=2
KPAR=1

NELMIN=4
ISIF=2
ISMEAR=0
SIGMA=0.050000
IBRION=-1

NSW=0

LWAVE=F
LCHARG=F
PSTRESS=0

KSPACING=0.200000
KGAMMA=.FALSE.

LASPH=T
LHFCALC = .TRUE.
GGA = PE
HFSCREEN = 0.2

NCORE=13