H  O 
 1.0000000000000000
     5.5999999999999996    0.0000000000000000    0.0000000000000000
     0.0000000000000000    5.5999999999999996    0.0000000000000000
     0.0000000000000000    0.0000000000000000    5.5999999999999996
 H   O  
  32  16
Cartesian
  0.7952627944162882  4.8047372055837112  4.8047372055837112
  2.0047372055837114  3.5952627944162878  4.8047372055837112
  4.9952627944162877  3.4047372055837117  4.9952627944162877
  3.5952627944162878  0.7952627944162882  0.7952627944162882
  4.8047372055837112  2.0047372055837114  0.7952627944162882
  4.9952627944162877  0.6047372055837117  2.1952627944162884
  3.4047372055837117  2.1952627944162884  2.1952627944162884
  0.7952627944162882  3.5952627944162878  0.7952627944162882
  2.1952627944162884  4.9952627944162877  3.4047372055837117
  2.0047372055837114  4.8047372055837112  0.7952627944162882
  0.6047372055837117  4.9952627944162877  2.1952627944162884
  0.7952627944162882  0.7952627944162882  3.5952627944162878
  2.0047372055837114  2.0047372055837114  3.5952627944162878
  2.1952627944162884  0.6047372055837117  4.9952627944162877
  0.6047372055837117  2.1952627944162884  4.9952627944162877
  3.5952627944162878  3.5952627944162878  3.5952627944162878
  4.8047372055837112  4.8047372055837112  3.5952627944162878
  2.1952627944162884  3.4047372055837117  2.1952627944162884
  0.6047372055837117  3.4047372055837117  3.4047372055837117
  3.4047372055837117  4.9952627944162877  4.9952627944162877
  4.9952627944162877  4.9952627944162877  0.6047372055837117
  3.5952627944162878  2.0047372055837114  4.8047372055837112
  4.8047372055837112  0.7952627944162882  4.8047372055837112
  4.9952627944162877  2.1952627944162884  3.4047372055837117
  3.4047372055837117  3.4047372055837117  0.6047372055837117
  0.6047372055837117  0.6047372055837117  0.6047372055837117
  3.4047372055837117  0.6047372055837117  3.4047372055837117
  0.7952627944162882  2.0047372055837114  2.0047372055837114
  4.8047372055837112  3.5952627944162878  2.0047372055837114
  3.5952627944162878  4.8047372055837112  2.0047372055837114
  2.1952627944162884  2.1952627944162884  0.6047372055837117
  2.0047372055837114  0.7952627944162882  2.0047372055837114
  2.7999999999999998  2.7999999999999998  2.7999999999999998
  4.1999999999999993  4.1999999999999993  4.1999999999999993
  1.3999999999999999  1.3999999999999999  1.3999999999999999
  2.7999999999999998  2.7999999999999998  0.0000000000000000
  1.3999999999999999  1.3999999999999999  4.1999999999999993
  0.0000000000000000  2.7999999999999998  2.7999999999999998
  4.1999999999999993  4.1999999999999993  1.3999999999999999
  1.3999999999999999  4.1999999999999993  4.1999999999999993
  1.3999999999999999  4.1999999999999993  1.3999999999999999
  0.0000000000000000  2.7999999999999998  0.0000000000000000
  2.7999999999999998  0.0000000000000000  2.7999999999999998
  4.1999999999999993  1.3999999999999999  4.1999999999999993
  4.1999999999999993  1.3999999999999999  1.3999999999999999
  2.7999999999999998  0.0000000000000000  0.0000000000000000
  0.0000000000000000  0.0000000000000000  2.7999999999999998
  0.0000000000000000  0.0000000000000000  0.0000000000000000
