H  O 
 1.0000000000000000
     5.5999999999999996    0.0000000000000000    0.0000000000000000
     0.0000000000000000    5.5999999999999996    0.0000000000000000
     0.0000000000000000    0.0000000000000000    5.5999999999999996
 H   O  
  32  16
Cartesian
  0.8125833024919771  4.7874166975080223  4.7874166975080223
  1.9874166975080230  3.6125833024919767  4.7874166975080223
  5.0125833024919766  3.3874166975080229  5.0125833024919766
  3.6125833024919767  0.8125833024919771  0.8125833024919771
  4.7874166975080223  1.9874166975080230  0.8125833024919771
  5.0125833024919766  0.5874166975080229  2.2125833024919768
  3.3874166975080229  2.2125833024919768  2.2125833024919768
  0.8125833024919771  3.6125833024919767  0.8125833024919771
  2.2125833024919768  5.0125833024919766  3.3874166975080229
  1.9874166975080230  4.7874166975080223  0.8125833024919771
  0.5874166975080229  5.0125833024919766  2.2125833024919768
  0.8125833024919771  0.8125833024919771  3.6125833024919767
  1.9874166975080230  1.9874166975080230  3.6125833024919767
  2.2125833024919768  0.5874166975080229  5.0125833024919766
  0.5874166975080229  2.2125833024919768  5.0125833024919766
  3.6125833024919767  3.6125833024919767  3.6125833024919767
  4.7874166975080223  4.7874166975080223  3.6125833024919767
  2.2125833024919768  3.3874166975080229  2.2125833024919768
  0.5874166975080229  3.3874166975080229  3.3874166975080229
  3.3874166975080229  5.0125833024919766  5.0125833024919766
  5.0125833024919766  5.0125833024919766  0.5874166975080229
  3.6125833024919767  1.9874166975080230  4.7874166975080223
  4.7874166975080223  0.8125833024919771  4.7874166975080223
  5.0125833024919766  2.2125833024919768  3.3874166975080229
  3.3874166975080229  3.3874166975080229  0.5874166975080229
  0.5874166975080229  0.5874166975080229  0.5874166975080229
  3.3874166975080229  0.5874166975080229  3.3874166975080229
  0.8125833024919771  1.9874166975080230  1.9874166975080230
  4.7874166975080223  3.6125833024919767  1.9874166975080230
  3.6125833024919767  4.7874166975080223  1.9874166975080230
  2.2125833024919768  2.2125833024919768  0.5874166975080229
  1.9874166975080230  0.8125833024919771  1.9874166975080230
  2.7999999999999998  2.7999999999999998  2.7999999999999998
  4.1999999999999993  4.1999999999999993  4.1999999999999993
  1.3999999999999999  1.3999999999999999  1.3999999999999999
  2.7999999999999998  2.7999999999999998  0.0000000000000000
  1.3999999999999999  1.3999999999999999  4.1999999999999993
  0.0000000000000000  2.7999999999999998  2.7999999999999998
  4.1999999999999993  4.1999999999999993  1.3999999999999999
  1.3999999999999999  4.1999999999999993  4.1999999999999993
  1.3999999999999999  4.1999999999999993  1.3999999999999999
  0.0000000000000000  2.7999999999999998  0.0000000000000000
  2.7999999999999998  0.0000000000000000  2.7999999999999998
  4.1999999999999993  1.3999999999999999  4.1999999999999993
  4.1999999999999993  1.3999999999999999  1.3999999999999999
  2.7999999999999998  0.0000000000000000  0.0000000000000000
  0.0000000000000000  0.0000000000000000  2.7999999999999998
  0.0000000000000000  0.0000000000000000  0.0000000000000000
