H  O 
 1.0000000000000000
     5.5999999999999996    0.0000000000000000    0.0000000000000000
     0.0000000000000000    5.5999999999999996    0.0000000000000000
     0.0000000000000000    0.0000000000000000    5.5999999999999996
 H   O  
  32  16
Cartesian
  0.9222798536380059  4.6777201463619935  4.6777201463619935
  1.8777201463619939  3.7222798536380055  4.6777201463619935
  5.1222798536380054  3.2777201463619940  5.1222798536380054
  3.7222798536380055  0.9222798536380059  0.9222798536380059
  4.6777201463619935  1.8777201463619939  0.9222798536380059
  5.1222798536380054  0.4777201463619940  2.3222798536380056
  3.2777201463619940  2.3222798536380056  2.3222798536380056
  0.9222798536380059  3.7222798536380055  0.9222798536380059
  2.3222798536380056  5.1222798536380054  3.2777201463619940
  1.8777201463619939  4.6777201463619935  0.9222798536380059
  0.4777201463619940  5.1222798536380054  2.3222798536380056
  0.9222798536380059  0.9222798536380059  3.7222798536380055
  1.8777201463619939  1.8777201463619939  3.7222798536380055
  2.3222798536380056  0.4777201463619940  5.1222798536380054
  0.4777201463619940  2.3222798536380056  5.1222798536380054
  3.7222798536380055  3.7222798536380055  3.7222798536380055
  4.6777201463619935  4.6777201463619935  3.7222798536380055
  2.3222798536380056  3.2777201463619940  2.3222798536380056
  0.4777201463619940  3.2777201463619940  3.2777201463619940
  3.2777201463619940  5.1222798536380054  5.1222798536380054
  5.1222798536380054  5.1222798536380054  0.4777201463619940
  3.7222798536380055  1.8777201463619939  4.6777201463619935
  4.6777201463619935  0.9222798536380059  4.6777201463619935
  5.1222798536380054  2.3222798536380056  3.2777201463619940
  3.2777201463619940  3.2777201463619940  0.4777201463619940
  0.4777201463619940  0.4777201463619940  0.4777201463619940
  3.2777201463619940  0.4777201463619940  3.2777201463619940
  0.9222798536380059  1.8777201463619939  1.8777201463619939
  4.6777201463619935  3.7222798536380055  1.8777201463619939
  3.7222798536380055  4.6777201463619935  1.8777201463619939
  2.3222798536380056  2.3222798536380056  0.4777201463619940
  1.8777201463619939  0.9222798536380059  1.8777201463619939
  2.7999999999999998  2.7999999999999998  2.7999999999999998
  4.1999999999999993  4.1999999999999993  4.1999999999999993
  1.3999999999999999  1.3999999999999999  1.3999999999999999
  2.7999999999999998  2.7999999999999998  0.0000000000000000
  1.3999999999999999  1.3999999999999999  4.1999999999999993
  0.0000000000000000  2.7999999999999998  2.7999999999999998
  4.1999999999999993  4.1999999999999993  1.3999999999999999
  1.3999999999999999  4.1999999999999993  4.1999999999999993
  1.3999999999999999  4.1999999999999993  1.3999999999999999
  0.0000000000000000  2.7999999999999998  0.0000000000000000
  2.7999999999999998  0.0000000000000000  2.7999999999999998
  4.1999999999999993  1.3999999999999999  4.1999999999999993
  4.1999999999999993  1.3999999999999999  1.3999999999999999
  2.7999999999999998  0.0000000000000000  0.0000000000000000
  0.0000000000000000  0.0000000000000000  2.7999999999999998
  0.0000000000000000  0.0000000000000000  0.0000000000000000
