H  O 
 1.0000000000000000
     5.5999999999999996    0.0000000000000000    0.0000000000000000
     0.0000000000000000    5.5999999999999996    0.0000000000000000
     0.0000000000000000    0.0000000000000000    5.5999999999999996
 H   O  
  32  16
Cartesian
  0.9857883832488646  4.6142116167511347  4.6142116167511347
  1.8142116167511351  3.7857883832488648  4.6142116167511347
  5.1857883832488643  3.2142116167511348  5.1857883832488643
  3.7857883832488648  0.9857883832488646  0.9857883832488646
  4.6142116167511347  1.8142116167511351  0.9857883832488646
  5.1857883832488643  0.4142116167511353  2.3857883832488649
  3.2142116167511348  2.3857883832488649  2.3857883832488649
  0.9857883832488646  3.7857883832488648  0.9857883832488646
  2.3857883832488649  5.1857883832488643  3.2142116167511348
  1.8142116167511351  4.6142116167511347  0.9857883832488646
  0.4142116167511353  5.1857883832488643  2.3857883832488649
  0.9857883832488646  0.9857883832488646  3.7857883832488648
  1.8142116167511351  1.8142116167511351  3.7857883832488648
  2.3857883832488649  0.4142116167511353  5.1857883832488643
  0.4142116167511353  2.3857883832488649  5.1857883832488643
  3.7857883832488648  3.7857883832488648  3.7857883832488648
  4.6142116167511347  4.6142116167511347  3.7857883832488648
  2.3857883832488649  3.2142116167511348  2.3857883832488649
  0.4142116167511353  3.2142116167511348  3.2142116167511348
  3.2142116167511348  5.1857883832488643  5.1857883832488643
  5.1857883832488643  5.1857883832488643  0.4142116167511353
  3.7857883832488648  1.8142116167511351  4.6142116167511347
  4.6142116167511347  0.9857883832488646  4.6142116167511347
  5.1857883832488643  2.3857883832488649  3.2142116167511348
  3.2142116167511348  3.2142116167511348  0.4142116167511353
  0.4142116167511353  0.4142116167511353  0.4142116167511353
  3.2142116167511348  0.4142116167511353  3.2142116167511348
  0.9857883832488646  1.8142116167511351  1.8142116167511351
  4.6142116167511347  3.7857883832488648  1.8142116167511351
  3.7857883832488648  4.6142116167511347  1.8142116167511351
  2.3857883832488649  2.3857883832488649  0.4142116167511353
  1.8142116167511351  0.9857883832488646  1.8142116167511351
  2.7999999999999998  2.7999999999999998  2.7999999999999998
  4.1999999999999993  4.1999999999999993  4.1999999999999993
  1.3999999999999999  1.3999999999999999  1.3999999999999999
  2.7999999999999998  2.7999999999999998  0.0000000000000000
  1.3999999999999999  1.3999999999999999  4.1999999999999993
  0.0000000000000000  2.7999999999999998  2.7999999999999998
  4.1999999999999993  4.1999999999999993  1.3999999999999999
  1.3999999999999999  4.1999999999999993  4.1999999999999993
  1.3999999999999999  4.1999999999999993  1.3999999999999999
  0.0000000000000000  2.7999999999999998  0.0000000000000000
  2.7999999999999998  0.0000000000000000  2.7999999999999998
  4.1999999999999993  1.3999999999999999  4.1999999999999993
  4.1999999999999993  1.3999999999999999  1.3999999999999999
  2.7999999999999998  0.0000000000000000  0.0000000000000000
  0.0000000000000000  0.0000000000000000  2.7999999999999998
  0.0000000000000000  0.0000000000000000  0.0000000000000000
