INPUT_PARAMETERS
# Created by Atomic Simulation Enviroment
calculation                             scf
ecutwfc                                 100
smearing_method                         gaussian
smearing_sigma                          0.01
basis_type                              lcao
ntype                                   2
ks_solver                               genelpa
mixing_type                             pulay
mixing_beta                             0.01
mixing_gg0                              0
scf_nmax                                100
scf_thr                                 1e-08
relax_nmax								500
force_thr_ev							0.02
gamma_only                              0
symmetry								-1
chg_extrap                              second-order
kspacing                                0.2

pseudo_dir		/home/zq/zqcode/ABACUS-orbitals/Dojo-NC-FR/Pseudopotential
orbital_dir		/home/zq/zqcode/ABACUS-orbitals/Dojo-NC-FR/Oribitals

#out_chg                                 1
#out_mat_hs2                             1
out_stru								1
out_bandgap                             1
out_alllog								1

dft_functional                          pbe
#exx_separate_loop						0
#exx_v_threshold							1
#exx_dm_threshold						1E-4
#exx_ccp_rmesh_times						1
#exx_real_number							1

