H  O 
 1.0000000000000000
     5.5999999999999996    0.0000000000000000    0.0000000000000000
     0.0000000000000000    5.5999999999999996    0.0000000000000000
     0.0000000000000000    0.0000000000000000    5.5999999999999996
 H   O  
  32  16
Cartesian
  0.9569208697893834  4.6430791302106158  4.6430791302106158
  1.8430791302106162  3.7569208697893832  4.6430791302106158
  5.1569208697893831  3.2430791302106163  5.1569208697893831
  3.7569208697893832  0.9569208697893834  0.9569208697893834
  4.6430791302106158  1.8430791302106162  0.9569208697893834
  5.1569208697893831  0.4430791302106165  2.3569208697893833
  3.2430791302106163  2.3569208697893833  2.3569208697893833
  0.9569208697893834  3.7569208697893832  0.9569208697893834
  2.3569208697893833  5.1569208697893831  3.2430791302106163
  1.8430791302106162  4.6430791302106158  0.9569208697893834
  0.4430791302106165  5.1569208697893831  2.3569208697893833
  0.9569208697893834  0.9569208697893834  3.7569208697893832
  1.8430791302106162  1.8430791302106162  3.7569208697893832
  2.3569208697893833  0.4430791302106165  5.1569208697893831
  0.4430791302106165  2.3569208697893833  5.1569208697893831
  3.7569208697893832  3.7569208697893832  3.7569208697893832
  4.6430791302106158  4.6430791302106158  3.7569208697893832
  2.3569208697893833  3.2430791302106163  2.3569208697893833
  0.4430791302106165  3.2430791302106163  3.2430791302106163
  3.2430791302106163  5.1569208697893831  5.1569208697893831
  5.1569208697893831  5.1569208697893831  0.4430791302106165
  3.7569208697893832  1.8430791302106162  4.6430791302106158
  4.6430791302106158  0.9569208697893834  4.6430791302106158
  5.1569208697893831  2.3569208697893833  3.2430791302106163
  3.2430791302106163  3.2430791302106163  0.4430791302106165
  0.4430791302106165  0.4430791302106165  0.4430791302106165
  3.2430791302106163  0.4430791302106165  3.2430791302106163
  0.9569208697893834  1.8430791302106162  1.8430791302106162
  4.6430791302106158  3.7569208697893832  1.8430791302106162
  3.7569208697893832  4.6430791302106158  1.8430791302106162
  2.3569208697893833  2.3569208697893833  0.4430791302106165
  1.8430791302106162  0.9569208697893834  1.8430791302106162
  2.7999999999999998  2.7999999999999998  2.7999999999999998
  4.1999999999999993  4.1999999999999993  4.1999999999999993
  1.3999999999999999  1.3999999999999999  1.3999999999999999
  2.7999999999999998  2.7999999999999998  0.0000000000000000
  1.3999999999999999  1.3999999999999999  4.1999999999999993
  0.0000000000000000  2.7999999999999998  2.7999999999999998
  4.1999999999999993  4.1999999999999993  1.3999999999999999
  1.3999999999999999  4.1999999999999993  4.1999999999999993
  1.3999999999999999  4.1999999999999993  1.3999999999999999
  0.0000000000000000  2.7999999999999998  0.0000000000000000
  2.7999999999999998  0.0000000000000000  2.7999999999999998
  4.1999999999999993  1.3999999999999999  4.1999999999999993
  4.1999999999999993  1.3999999999999999  1.3999999999999999
  2.7999999999999998  0.0000000000000000  0.0000000000000000
  0.0000000000000000  0.0000000000000000  2.7999999999999998
  0.0000000000000000  0.0000000000000000  0.0000000000000000
