H  O 
 1.0000000000000000
     5.5999999999999996    0.0000000000000000    0.0000000000000000
     0.0000000000000000    5.5999999999999996    0.0000000000000000
     0.0000000000000000    0.0000000000000000    5.5999999999999996
 H   O  
  32  16
Cartesian
  0.7866025403784438  4.8133974596215552  4.8133974596215552
  2.0133974596215558  3.5866025403784434  4.8133974596215552
  4.9866025403784437  3.4133974596215562  4.9866025403784437
  3.5866025403784434  0.7866025403784438  0.7866025403784438
  4.8133974596215552  2.0133974596215558  0.7866025403784438
  4.9866025403784437  0.6133974596215561  2.1866025403784439
  3.4133974596215562  2.1866025403784439  2.1866025403784439
  0.7866025403784438  3.5866025403784434  0.7866025403784438
  2.1866025403784439  4.9866025403784437  3.4133974596215562
  2.0133974596215558  4.8133974596215552  0.7866025403784438
  0.6133974596215561  4.9866025403784437  2.1866025403784439
  0.7866025403784438  0.7866025403784438  3.5866025403784434
  2.0133974596215558  2.0133974596215558  3.5866025403784434
  2.1866025403784439  0.6133974596215561  4.9866025403784437
  0.6133974596215561  2.1866025403784439  4.9866025403784437
  3.5866025403784434  3.5866025403784434  3.5866025403784434
  4.8133974596215552  4.8133974596215552  3.5866025403784434
  2.1866025403784439  3.4133974596215562  2.1866025403784439
  0.6133974596215561  3.4133974596215562  3.4133974596215562
  3.4133974596215562  4.9866025403784437  4.9866025403784437
  4.9866025403784437  4.9866025403784437  0.6133974596215561
  3.5866025403784434  2.0133974596215558  4.8133974596215552
  4.8133974596215552  0.7866025403784438  4.8133974596215552
  4.9866025403784437  2.1866025403784439  3.4133974596215562
  3.4133974596215562  3.4133974596215562  0.6133974596215561
  0.6133974596215561  0.6133974596215561  0.6133974596215561
  3.4133974596215562  0.6133974596215561  3.4133974596215562
  0.7866025403784438  2.0133974596215558  2.0133974596215558
  4.8133974596215552  3.5866025403784434  2.0133974596215558
  3.5866025403784434  4.8133974596215552  2.0133974596215558
  2.1866025403784439  2.1866025403784439  0.6133974596215561
  2.0133974596215558  0.7866025403784438  2.0133974596215558
  2.7999999999999998  2.7999999999999998  2.7999999999999998
  4.1999999999999993  4.1999999999999993  4.1999999999999993
  1.3999999999999999  1.3999999999999999  1.3999999999999999
  2.7999999999999998  2.7999999999999998  0.0000000000000000
  1.3999999999999999  1.3999999999999999  4.1999999999999993
  0.0000000000000000  2.7999999999999998  2.7999999999999998
  4.1999999999999993  4.1999999999999993  1.3999999999999999
  1.3999999999999999  4.1999999999999993  4.1999999999999993
  1.3999999999999999  4.1999999999999993  1.3999999999999999
  0.0000000000000000  2.7999999999999998  0.0000000000000000
  2.7999999999999998  0.0000000000000000  2.7999999999999998
  4.1999999999999993  1.3999999999999999  4.1999999999999993
  4.1999999999999993  1.3999999999999999  1.3999999999999999
  2.7999999999999998  0.0000000000000000  0.0000000000000000
  0.0000000000000000  0.0000000000000000  2.7999999999999998
  0.0000000000000000  0.0000000000000000  0.0000000000000000
