H  O 
 1.0000000000000000
     5.5999999999999996    0.0000000000000000    0.0000000000000000
     0.0000000000000000    5.5999999999999996    0.0000000000000000
     0.0000000000000000    0.0000000000000000    5.5999999999999996
 H   O  
  32  16
Cartesian
  1.0059956426705017  4.5940043573294984  4.5940043573294984
  1.7940043573294981  3.8059956426705015  4.5940043573294984
  5.2059956426705014  3.1940043573294981  5.2059956426705014
  3.8059956426705015  1.0059956426705017  1.0059956426705017
  4.5940043573294984  1.7940043573294981  1.0059956426705017
  5.2059956426705014  0.3940043573294983  2.4059956426705016
  3.1940043573294981  2.4059956426705016  2.4059956426705016
  1.0059956426705017  3.8059956426705015  1.0059956426705017
  2.4059956426705016  5.2059956426705014  3.1940043573294981
  1.7940043573294981  4.5940043573294984  1.0059956426705017
  0.3940043573294983  5.2059956426705014  2.4059956426705016
  1.0059956426705017  1.0059956426705017  3.8059956426705015
  1.7940043573294981  1.7940043573294981  3.8059956426705015
  2.4059956426705016  0.3940043573294983  5.2059956426705014
  0.3940043573294983  2.4059956426705016  5.2059956426705014
  3.8059956426705015  3.8059956426705015  3.8059956426705015
  4.5940043573294984  4.5940043573294984  3.8059956426705015
  2.4059956426705016  3.1940043573294981  2.4059956426705016
  0.3940043573294983  3.1940043573294981  3.1940043573294981
  3.1940043573294981  5.2059956426705014  5.2059956426705014
  5.2059956426705014  5.2059956426705014  0.3940043573294983
  3.8059956426705015  1.7940043573294981  4.5940043573294984
  4.5940043573294984  1.0059956426705017  4.5940043573294984
  5.2059956426705014  2.4059956426705016  3.1940043573294981
  3.1940043573294981  3.1940043573294981  0.3940043573294983
  0.3940043573294983  0.3940043573294983  0.3940043573294983
  3.1940043573294981  0.3940043573294983  3.1940043573294981
  1.0059956426705017  1.7940043573294981  1.7940043573294981
  4.5940043573294984  3.8059956426705015  1.7940043573294981
  3.8059956426705015  4.5940043573294984  1.7940043573294981
  2.4059956426705016  2.4059956426705016  0.3940043573294983
  1.7940043573294981  1.0059956426705017  1.7940043573294981
  2.7999999999999998  2.7999999999999998  2.7999999999999998
  4.1999999999999993  4.1999999999999993  4.1999999999999993
  1.3999999999999999  1.3999999999999999  1.3999999999999999
  2.7999999999999998  2.7999999999999998  0.0000000000000000
  1.3999999999999999  1.3999999999999999  4.1999999999999993
  0.0000000000000000  2.7999999999999998  2.7999999999999998
  4.1999999999999993  4.1999999999999993  1.3999999999999999
  1.3999999999999999  4.1999999999999993  4.1999999999999993
  1.3999999999999999  4.1999999999999993  1.3999999999999999
  0.0000000000000000  2.7999999999999998  0.0000000000000000
  2.7999999999999998  0.0000000000000000  2.7999999999999998
  4.1999999999999993  1.3999999999999999  4.1999999999999993
  4.1999999999999993  1.3999999999999999  1.3999999999999999
  2.7999999999999998  0.0000000000000000  0.0000000000000000
  0.0000000000000000  0.0000000000000000  2.7999999999999998
  0.0000000000000000  0.0000000000000000  0.0000000000000000
