H  O 
 1.0000000000000000
     5.5999999999999996    0.0000000000000000    0.0000000000000000
     0.0000000000000000    5.5999999999999996    0.0000000000000000
     0.0000000000000000    0.0000000000000000    5.5999999999999996
 H   O  
  32  16
Cartesian
  0.8962990915244727  4.7037009084755272  4.7037009084755272
  1.9037009084755272  3.6962990915244722  4.7037009084755272
  5.0962990915244726  3.3037009084755273  5.0962990915244726
  3.6962990915244722  0.8962990915244727  0.8962990915244727
  4.7037009084755272  1.9037009084755272  0.8962990915244727
  5.0962990915244726  0.5037009084755272  2.2962990915244723
  3.3037009084755273  2.2962990915244723  2.2962990915244723
  0.8962990915244727  3.6962990915244722  0.8962990915244727
  2.2962990915244723  5.0962990915244726  3.3037009084755273
  1.9037009084755272  4.7037009084755272  0.8962990915244727
  0.5037009084755272  5.0962990915244726  2.2962990915244723
  0.8962990915244727  0.8962990915244727  3.6962990915244722
  1.9037009084755272  1.9037009084755272  3.6962990915244722
  2.2962990915244723  0.5037009084755272  5.0962990915244726
  0.5037009084755272  2.2962990915244723  5.0962990915244726
  3.6962990915244722  3.6962990915244722  3.6962990915244722
  4.7037009084755272  4.7037009084755272  3.6962990915244722
  2.2962990915244723  3.3037009084755273  2.2962990915244723
  0.5037009084755272  3.3037009084755273  3.3037009084755273
  3.3037009084755273  5.0962990915244726  5.0962990915244726
  5.0962990915244726  5.0962990915244726  0.5037009084755272
  3.6962990915244722  1.9037009084755272  4.7037009084755272
  4.7037009084755272  0.8962990915244727  4.7037009084755272
  5.0962990915244726  2.2962990915244723  3.3037009084755273
  3.3037009084755273  3.3037009084755273  0.5037009084755272
  0.5037009084755272  0.5037009084755272  0.5037009084755272
  3.3037009084755273  0.5037009084755272  3.3037009084755273
  0.8962990915244727  1.9037009084755272  1.9037009084755272
  4.7037009084755272  3.6962990915244722  1.9037009084755272
  3.6962990915244722  4.7037009084755272  1.9037009084755272
  2.2962990915244723  2.2962990915244723  0.5037009084755272
  1.9037009084755272  0.8962990915244727  1.9037009084755272
  2.7999999999999998  2.7999999999999998  2.7999999999999998
  4.1999999999999993  4.1999999999999993  4.1999999999999993
  1.3999999999999999  1.3999999999999999  1.3999999999999999
  2.7999999999999998  2.7999999999999998  0.0000000000000000
  1.3999999999999999  1.3999999999999999  4.1999999999999993
  0.0000000000000000  2.7999999999999998  2.7999999999999998
  4.1999999999999993  4.1999999999999993  1.3999999999999999
  1.3999999999999999  4.1999999999999993  4.1999999999999993
  1.3999999999999999  4.1999999999999993  1.3999999999999999
  0.0000000000000000  2.7999999999999998  0.0000000000000000
  2.7999999999999998  0.0000000000000000  2.7999999999999998
  4.1999999999999993  1.3999999999999999  4.1999999999999993
  4.1999999999999993  1.3999999999999999  1.3999999999999999
  2.7999999999999998  0.0000000000000000  0.0000000000000000
  0.0000000000000000  0.0000000000000000  2.7999999999999998
  0.0000000000000000  0.0000000000000000  0.0000000000000000
