H  O 
 1.0000000000000000
     5.5999999999999996    0.0000000000000000    0.0000000000000000
     0.0000000000000000    5.5999999999999996    0.0000000000000000
     0.0000000000000000    0.0000000000000000    5.5999999999999996
 H   O  
  32  16
Cartesian
  0.9396003617136948  4.6603996382863047  4.6603996382863047
  1.8603996382863051  3.7396003617136944  4.6603996382863047
  5.1396003617136943  3.2603996382863052  5.1396003617136943
  3.7396003617136944  0.9396003617136948  0.9396003617136948
  4.6603996382863047  1.8603996382863051  0.9396003617136948
  5.1396003617136943  0.4603996382863053  2.3396003617136945
  3.2603996382863052  2.3396003617136945  2.3396003617136945
  0.9396003617136948  3.7396003617136944  0.9396003617136948
  2.3396003617136945  5.1396003617136943  3.2603996382863052
  1.8603996382863051  4.6603996382863047  0.9396003617136948
  0.4603996382863053  5.1396003617136943  2.3396003617136945
  0.9396003617136948  0.9396003617136948  3.7396003617136944
  1.8603996382863051  1.8603996382863051  3.7396003617136944
  2.3396003617136945  0.4603996382863053  5.1396003617136943
  0.4603996382863053  2.3396003617136945  5.1396003617136943
  3.7396003617136944  3.7396003617136944  3.7396003617136944
  4.6603996382863047  4.6603996382863047  3.7396003617136944
  2.3396003617136945  3.2603996382863052  2.3396003617136945
  0.4603996382863053  3.2603996382863052  3.2603996382863052
  3.2603996382863052  5.1396003617136943  5.1396003617136943
  5.1396003617136943  5.1396003617136943  0.4603996382863053
  3.7396003617136944  1.8603996382863051  4.6603996382863047
  4.6603996382863047  0.9396003617136948  4.6603996382863047
  5.1396003617136943  2.3396003617136945  3.2603996382863052
  3.2603996382863052  3.2603996382863052  0.4603996382863053
  0.4603996382863053  0.4603996382863053  0.4603996382863053
  3.2603996382863052  0.4603996382863053  3.2603996382863052
  0.9396003617136948  1.8603996382863051  1.8603996382863051
  4.6603996382863047  3.7396003617136944  1.8603996382863051
  3.7396003617136944  4.6603996382863047  1.8603996382863051
  2.3396003617136945  2.3396003617136945  0.4603996382863053
  1.8603996382863051  0.9396003617136948  1.8603996382863051
  2.7999999999999998  2.7999999999999998  2.7999999999999998
  4.1999999999999993  4.1999999999999993  4.1999999999999993
  1.3999999999999999  1.3999999999999999  1.3999999999999999
  2.7999999999999998  2.7999999999999998  0.0000000000000000
  1.3999999999999999  1.3999999999999999  4.1999999999999993
  0.0000000000000000  2.7999999999999998  2.7999999999999998
  4.1999999999999993  4.1999999999999993  1.3999999999999999
  1.3999999999999999  4.1999999999999993  4.1999999999999993
  1.3999999999999999  4.1999999999999993  1.3999999999999999
  0.0000000000000000  2.7999999999999998  0.0000000000000000
  2.7999999999999998  0.0000000000000000  2.7999999999999998
  4.1999999999999993  1.3999999999999999  4.1999999999999993
  4.1999999999999993  1.3999999999999999  1.3999999999999999
  2.7999999999999998  0.0000000000000000  0.0000000000000000
  0.0000000000000000  0.0000000000000000  2.7999999999999998
  0.0000000000000000  0.0000000000000000  0.0000000000000000
