H  O 
 1.0000000000000000
     5.5999999999999996    0.0000000000000000    0.0000000000000000
     0.0000000000000000    5.5999999999999996    0.0000000000000000
     0.0000000000000000    0.0000000000000000    5.5999999999999996
 H   O  
  32  16
Cartesian
  0.8039230484541326  4.7960769515458672  4.7960769515458672
  1.9960769515458674  3.6039230484541322  4.7960769515458672
  5.0039230484541326  3.3960769515458673  5.0039230484541326
  3.6039230484541322  0.8039230484541326  0.8039230484541326
  4.7960769515458672  1.9960769515458674  0.8039230484541326
  5.0039230484541326  0.5960769515458673  2.2039230484541323
  3.3960769515458673  2.2039230484541323  2.2039230484541323
  0.8039230484541326  3.6039230484541322  0.8039230484541326
  2.2039230484541323  5.0039230484541326  3.3960769515458673
  1.9960769515458674  4.7960769515458672  0.8039230484541326
  0.5960769515458673  5.0039230484541326  2.2039230484541323
  0.8039230484541326  0.8039230484541326  3.6039230484541322
  1.9960769515458674  1.9960769515458674  3.6039230484541322
  2.2039230484541323  0.5960769515458673  5.0039230484541326
  0.5960769515458673  2.2039230484541323  5.0039230484541326
  3.6039230484541322  3.6039230484541322  3.6039230484541322
  4.7960769515458672  4.7960769515458672  3.6039230484541322
  2.2039230484541323  3.3960769515458673  2.2039230484541323
  0.5960769515458673  3.3960769515458673  3.3960769515458673
  3.3960769515458673  5.0039230484541326  5.0039230484541326
  5.0039230484541326  5.0039230484541326  0.5960769515458673
  3.6039230484541322  1.9960769515458674  4.7960769515458672
  4.7960769515458672  0.8039230484541326  4.7960769515458672
  5.0039230484541326  2.2039230484541323  3.3960769515458673
  3.3960769515458673  3.3960769515458673  0.5960769515458673
  0.5960769515458673  0.5960769515458673  0.5960769515458673
  3.3960769515458673  0.5960769515458673  3.3960769515458673
  0.8039230484541326  1.9960769515458674  1.9960769515458674
  4.7960769515458672  3.6039230484541322  1.9960769515458674
  3.6039230484541322  4.7960769515458672  1.9960769515458674
  2.2039230484541323  2.2039230484541323  0.5960769515458673
  1.9960769515458674  0.8039230484541326  1.9960769515458674
  2.7999999999999998  2.7999999999999998  2.7999999999999998
  4.1999999999999993  4.1999999999999993  4.1999999999999993
  1.3999999999999999  1.3999999999999999  1.3999999999999999
  2.7999999999999998  2.7999999999999998  0.0000000000000000
  1.3999999999999999  1.3999999999999999  4.1999999999999993
  0.0000000000000000  2.7999999999999998  2.7999999999999998
  4.1999999999999993  4.1999999999999993  1.3999999999999999
  1.3999999999999999  4.1999999999999993  4.1999999999999993
  1.3999999999999999  4.1999999999999993  1.3999999999999999
  0.0000000000000000  2.7999999999999998  0.0000000000000000
  2.7999999999999998  0.0000000000000000  2.7999999999999998
  4.1999999999999993  1.3999999999999999  4.1999999999999993
  4.1999999999999993  1.3999999999999999  1.3999999999999999
  2.7999999999999998  0.0000000000000000  0.0000000000000000
  0.0000000000000000  0.0000000000000000  2.7999999999999998
  0.0000000000000000  0.0000000000000000  0.0000000000000000
