H  O 
 1.0000000000000000
     5.5999999999999996    0.0000000000000000    0.0000000000000000
     0.0000000000000000    5.5999999999999996    0.0000000000000000
     0.0000000000000000    0.0000000000000000    5.5999999999999996
 H   O  
  32  16
Cartesian
  0.7721687836487031  4.8278312163512966  4.8278312163512966
  2.0278312163512964  3.5721687836487033  4.8278312163512966
  4.9721687836487032  3.4278312163512963  4.9721687836487032
  3.5721687836487033  0.7721687836487031  0.7721687836487031
  4.8278312163512966  2.0278312163512964  0.7721687836487031
  4.9721687836487032  0.6278312163512968  2.1721687836487034
  3.4278312163512963  2.1721687836487034  2.1721687836487034
  0.7721687836487031  3.5721687836487033  0.7721687836487031
  2.1721687836487034  4.9721687836487032  3.4278312163512963
  2.0278312163512964  4.8278312163512966  0.7721687836487031
  0.6278312163512968  4.9721687836487032  2.1721687836487034
  0.7721687836487031  0.7721687836487031  3.5721687836487033
  2.0278312163512964  2.0278312163512964  3.5721687836487033
  2.1721687836487034  0.6278312163512968  4.9721687836487032
  0.6278312163512968  2.1721687836487034  4.9721687836487032
  3.5721687836487033  3.5721687836487033  3.5721687836487033
  4.8278312163512966  4.8278312163512966  3.5721687836487033
  2.1721687836487034  3.4278312163512963  2.1721687836487034
  0.6278312163512968  3.4278312163512963  3.4278312163512963
  3.4278312163512963  4.9721687836487032  4.9721687836487032
  4.9721687836487032  4.9721687836487032  0.6278312163512968
  3.5721687836487033  2.0278312163512964  4.8278312163512966
  4.8278312163512966  0.7721687836487031  4.8278312163512966
  4.9721687836487032  2.1721687836487034  3.4278312163512963
  3.4278312163512963  3.4278312163512963  0.6278312163512968
  0.6278312163512968  0.6278312163512968  0.6278312163512968
  3.4278312163512963  0.6278312163512968  3.4278312163512963
  0.7721687836487031  2.0278312163512964  2.0278312163512964
  4.8278312163512966  3.5721687836487033  2.0278312163512964
  3.5721687836487033  4.8278312163512966  2.0278312163512964
  2.1721687836487034  2.1721687836487034  0.6278312163512968
  2.0278312163512964  0.7721687836487031  2.0278312163512964
  2.7999999999999998  2.7999999999999998  2.7999999999999998
  4.1999999999999993  4.1999999999999993  4.1999999999999993
  1.3999999999999999  1.3999999999999999  1.3999999999999999
  2.7999999999999998  2.7999999999999998  0.0000000000000000
  1.3999999999999999  1.3999999999999999  4.1999999999999993
  0.0000000000000000  2.7999999999999998  2.7999999999999998
  4.1999999999999993  4.1999999999999993  1.3999999999999999
  1.3999999999999999  4.1999999999999993  4.1999999999999993
  1.3999999999999999  4.1999999999999993  1.3999999999999999
  0.0000000000000000  2.7999999999999998  0.0000000000000000
  2.7999999999999998  0.0000000000000000  2.7999999999999998
  4.1999999999999993  1.3999999999999999  4.1999999999999993
  4.1999999999999993  1.3999999999999999  1.3999999999999999
  2.7999999999999998  0.0000000000000000  0.0000000000000000
  0.0000000000000000  0.0000000000000000  2.7999999999999998
  0.0000000000000000  0.0000000000000000  0.0000000000000000
