H  O 
 1.0000000000000000
     5.5999999999999996    0.0000000000000000    0.0000000000000000
     0.0000000000000000    5.5999999999999996    0.0000000000000000
     0.0000000000000000    0.0000000000000000    5.5999999999999996
 H   O  
  32  16
Cartesian
  1.0002221399786055  4.5997778600213941  4.5997778600213941
  1.7997778600213943  3.8002221399786049  4.5997778600213941
  5.2002221399786048  3.1997778600213946  5.2002221399786048
  3.8002221399786049  1.0002221399786055  1.0002221399786055
  4.5997778600213941  1.7997778600213943  1.0002221399786055
  5.2002221399786048  0.3997778600213945  2.4002221399786055
  3.1997778600213946  2.4002221399786055  2.4002221399786055
  1.0002221399786055  3.8002221399786049  1.0002221399786055
  2.4002221399786055  5.2002221399786048  3.1997778600213946
  1.7997778600213943  4.5997778600213941  1.0002221399786055
  0.3997778600213945  5.2002221399786048  2.4002221399786055
  1.0002221399786055  1.0002221399786055  3.8002221399786049
  1.7997778600213943  1.7997778600213943  3.8002221399786049
  2.4002221399786055  0.3997778600213945  5.2002221399786048
  0.3997778600213945  2.4002221399786055  5.2002221399786048
  3.8002221399786049  3.8002221399786049  3.8002221399786049
  4.5997778600213941  4.5997778600213941  3.8002221399786049
  2.4002221399786055  3.1997778600213946  2.4002221399786055
  0.3997778600213945  3.1997778600213946  3.1997778600213946
  3.1997778600213946  5.2002221399786048  5.2002221399786048
  5.2002221399786048  5.2002221399786048  0.3997778600213945
  3.8002221399786049  1.7997778600213943  4.5997778600213941
  4.5997778600213941  1.0002221399786055  4.5997778600213941
  5.2002221399786048  2.4002221399786055  3.1997778600213946
  3.1997778600213946  3.1997778600213946  0.3997778600213945
  0.3997778600213945  0.3997778600213945  0.3997778600213945
  3.1997778600213946  0.3997778600213945  3.1997778600213946
  1.0002221399786055  1.7997778600213943  1.7997778600213943
  4.5997778600213941  3.8002221399786049  1.7997778600213943
  3.8002221399786049  4.5997778600213941  1.7997778600213943
  2.4002221399786055  2.4002221399786055  0.3997778600213945
  1.7997778600213943  1.0002221399786055  1.7997778600213943
  2.7999999999999998  2.7999999999999998  2.7999999999999998
  4.1999999999999993  4.1999999999999993  4.1999999999999993
  1.3999999999999999  1.3999999999999999  1.3999999999999999
  2.7999999999999998  2.7999999999999998  0.0000000000000000
  1.3999999999999999  1.3999999999999999  4.1999999999999993
  0.0000000000000000  2.7999999999999998  2.7999999999999998
  4.1999999999999993  4.1999999999999993  1.3999999999999999
  1.3999999999999999  4.1999999999999993  4.1999999999999993
  1.3999999999999999  4.1999999999999993  1.3999999999999999
  0.0000000000000000  2.7999999999999998  0.0000000000000000
  2.7999999999999998  0.0000000000000000  2.7999999999999998
  4.1999999999999993  1.3999999999999999  4.1999999999999993
  4.1999999999999993  1.3999999999999999  1.3999999999999999
  2.7999999999999998  0.0000000000000000  0.0000000000000000
  0.0000000000000000  0.0000000000000000  2.7999999999999998
  0.0000000000000000  0.0000000000000000  0.0000000000000000
