H  O 
 1.0000000000000000
     5.5999999999999996    0.0000000000000000    0.0000000000000000
     0.0000000000000000    5.5999999999999996    0.0000000000000000
     0.0000000000000000    0.0000000000000000    5.5999999999999996
 H   O  
  32  16
Cartesian
  0.9107328482542134  4.6892671517457858  4.6892671517457858
  1.8892671517457862  3.7107328482542132  4.6892671517457858
  5.1107328482542131  3.2892671517457863  5.1107328482542131
  3.7107328482542132  0.9107328482542134  0.9107328482542134
  4.6892671517457858  1.8892671517457862  0.9107328482542134
  5.1107328482542131  0.4892671517457866  2.3107328482542133
  3.2892671517457863  2.3107328482542133  2.3107328482542133
  0.9107328482542134  3.7107328482542132  0.9107328482542134
  2.3107328482542133  5.1107328482542131  3.2892671517457863
  1.8892671517457862  4.6892671517457858  0.9107328482542134
  0.4892671517457866  5.1107328482542131  2.3107328482542133
  0.9107328482542134  0.9107328482542134  3.7107328482542132
  1.8892671517457862  1.8892671517457862  3.7107328482542132
  2.3107328482542133  0.4892671517457866  5.1107328482542131
  0.4892671517457866  2.3107328482542133  5.1107328482542131
  3.7107328482542132  3.7107328482542132  3.7107328482542132
  4.6892671517457858  4.6892671517457858  3.7107328482542132
  2.3107328482542133  3.2892671517457863  2.3107328482542133
  0.4892671517457866  3.2892671517457863  3.2892671517457863
  3.2892671517457863  5.1107328482542131  5.1107328482542131
  5.1107328482542131  5.1107328482542131  0.4892671517457866
  3.7107328482542132  1.8892671517457862  4.6892671517457858
  4.6892671517457858  0.9107328482542134  4.6892671517457858
  5.1107328482542131  2.3107328482542133  3.2892671517457863
  3.2892671517457863  3.2892671517457863  0.4892671517457866
  0.4892671517457866  0.4892671517457866  0.4892671517457866
  3.2892671517457863  0.4892671517457866  3.2892671517457863
  0.9107328482542134  1.8892671517457862  1.8892671517457862
  4.6892671517457858  3.7107328482542132  1.8892671517457862
  3.7107328482542132  4.6892671517457858  1.8892671517457862
  2.3107328482542133  2.3107328482542133  0.4892671517457866
  1.8892671517457862  0.9107328482542134  1.8892671517457862
  2.7999999999999998  2.7999999999999998  2.7999999999999998
  4.1999999999999993  4.1999999999999993  4.1999999999999993
  1.3999999999999999  1.3999999999999999  1.3999999999999999
  2.7999999999999998  2.7999999999999998  0.0000000000000000
  1.3999999999999999  1.3999999999999999  4.1999999999999993
  0.0000000000000000  2.7999999999999998  2.7999999999999998
  4.1999999999999993  4.1999999999999993  1.3999999999999999
  1.3999999999999999  4.1999999999999993  4.1999999999999993
  1.3999999999999999  4.1999999999999993  1.3999999999999999
  0.0000000000000000  2.7999999999999998  0.0000000000000000
  2.7999999999999998  0.0000000000000000  2.7999999999999998
  4.1999999999999993  1.3999999999999999  4.1999999999999993
  4.1999999999999993  1.3999999999999999  1.3999999999999999
  2.7999999999999998  0.0000000000000000  0.0000000000000000
  0.0000000000000000  0.0000000000000000  2.7999999999999998
  0.0000000000000000  0.0000000000000000  0.0000000000000000
