H  O 
 1.0000000000000000
     5.5999999999999996    0.0000000000000000    0.0000000000000000
     0.0000000000000000    5.5999999999999996    0.0000000000000000
     0.0000000000000000    0.0000000000000000    5.5999999999999996
 H   O  
  32  16
Cartesian
  0.8154700538379251  4.7845299461620749  4.7845299461620749
  1.9845299461620747  3.6154700538379245  4.7845299461620749
  5.0154700538379249  3.3845299461620750  5.0154700538379249
  3.6154700538379245  0.8154700538379251  0.8154700538379251
  4.7845299461620749  1.9845299461620747  0.8154700538379251
  5.0154700538379249  0.5845299461620748  2.2154700538379251
  3.3845299461620750  2.2154700538379251  2.2154700538379251
  0.8154700538379251  3.6154700538379245  0.8154700538379251
  2.2154700538379251  5.0154700538379249  3.3845299461620750
  1.9845299461620747  4.7845299461620749  0.8154700538379251
  0.5845299461620748  5.0154700538379249  2.2154700538379251
  0.8154700538379251  0.8154700538379251  3.6154700538379245
  1.9845299461620747  1.9845299461620747  3.6154700538379245
  2.2154700538379251  0.5845299461620748  5.0154700538379249
  0.5845299461620748  2.2154700538379251  5.0154700538379249
  3.6154700538379245  3.6154700538379245  3.6154700538379245
  4.7845299461620749  4.7845299461620749  3.6154700538379245
  2.2154700538379251  3.3845299461620750  2.2154700538379251
  0.5845299461620748  3.3845299461620750  3.3845299461620750
  3.3845299461620750  5.0154700538379249  5.0154700538379249
  5.0154700538379249  5.0154700538379249  0.5845299461620748
  3.6154700538379245  1.9845299461620747  4.7845299461620749
  4.7845299461620749  0.8154700538379251  4.7845299461620749
  5.0154700538379249  2.2154700538379251  3.3845299461620750
  3.3845299461620750  3.3845299461620750  0.5845299461620748
  0.5845299461620748  0.5845299461620748  0.5845299461620748
  3.3845299461620750  0.5845299461620748  3.3845299461620750
  0.8154700538379251  1.9845299461620747  1.9845299461620747
  4.7845299461620749  3.6154700538379245  1.9845299461620747
  3.6154700538379245  4.7845299461620749  1.9845299461620747
  2.2154700538379251  2.2154700538379251  0.5845299461620748
  1.9845299461620747  0.8154700538379251  1.9845299461620747
  2.7999999999999998  2.7999999999999998  2.7999999999999998
  4.1999999999999993  4.1999999999999993  4.1999999999999993
  1.3999999999999999  1.3999999999999999  1.3999999999999999
  2.7999999999999998  2.7999999999999998  0.0000000000000000
  1.3999999999999999  1.3999999999999999  4.1999999999999993
  0.0000000000000000  2.7999999999999998  2.7999999999999998
  4.1999999999999993  4.1999999999999993  1.3999999999999999
  1.3999999999999999  4.1999999999999993  4.1999999999999993
  1.3999999999999999  4.1999999999999993  1.3999999999999999
  0.0000000000000000  2.7999999999999998  0.0000000000000000
  2.7999999999999998  0.0000000000000000  2.7999999999999998
  4.1999999999999993  1.3999999999999999  4.1999999999999993
  4.1999999999999993  1.3999999999999999  1.3999999999999999
  2.7999999999999998  0.0000000000000000  0.0000000000000000
  0.0000000000000000  0.0000000000000000  2.7999999999999998
  0.0000000000000000  0.0000000000000000  0.0000000000000000
