H  O 
 1.0000000000000000
     5.5999999999999996    0.0000000000000000    0.0000000000000000
     0.0000000000000000    5.5999999999999996    0.0000000000000000
     0.0000000000000000    0.0000000000000000    5.5999999999999996
 H   O  
  32  16
Cartesian
  0.8558845726811989  4.7441154273188006  4.7441154273188006
  1.9441154273188008  3.6558845726811988  4.7441154273188006
  5.0558845726811992  3.3441154273188007  5.0558845726811992
  3.6558845726811988  0.8558845726811989  0.8558845726811989
  4.7441154273188006  1.9441154273188008  0.8558845726811989
  5.0558845726811992  0.5441154273188009  2.2558845726811989
  3.3441154273188007  2.2558845726811989  2.2558845726811989
  0.8558845726811989  3.6558845726811988  0.8558845726811989
  2.2558845726811989  5.0558845726811992  3.3441154273188007
  1.9441154273188008  4.7441154273188006  0.8558845726811989
  0.5441154273188009  5.0558845726811992  2.2558845726811989
  0.8558845726811989  0.8558845726811989  3.6558845726811988
  1.9441154273188008  1.9441154273188008  3.6558845726811988
  2.2558845726811989  0.5441154273188009  5.0558845726811992
  0.5441154273188009  2.2558845726811989  5.0558845726811992
  3.6558845726811988  3.6558845726811988  3.6558845726811988
  4.7441154273188006  4.7441154273188006  3.6558845726811988
  2.2558845726811989  3.3441154273188007  2.2558845726811989
  0.5441154273188009  3.3441154273188007  3.3441154273188007
  3.3441154273188007  5.0558845726811992  5.0558845726811992
  5.0558845726811992  5.0558845726811992  0.5441154273188009
  3.6558845726811988  1.9441154273188008  4.7441154273188006
  4.7441154273188006  0.8558845726811989  4.7441154273188006
  5.0558845726811992  2.2558845726811989  3.3441154273188007
  3.3441154273188007  3.3441154273188007  0.5441154273188009
  0.5441154273188009  0.5441154273188009  0.5441154273188009
  3.3441154273188007  0.5441154273188009  3.3441154273188007
  0.8558845726811989  1.9441154273188008  1.9441154273188008
  4.7441154273188006  3.6558845726811988  1.9441154273188008
  3.6558845726811988  4.7441154273188006  1.9441154273188008
  2.2558845726811989  2.2558845726811989  0.5441154273188009
  1.9441154273188008  0.8558845726811989  1.9441154273188008
  2.7999999999999998  2.7999999999999998  2.7999999999999998
  4.1999999999999993  4.1999999999999993  4.1999999999999993
  1.3999999999999999  1.3999999999999999  1.3999999999999999
  2.7999999999999998  2.7999999999999998  0.0000000000000000
  1.3999999999999999  1.3999999999999999  4.1999999999999993
  0.0000000000000000  2.7999999999999998  2.7999999999999998
  4.1999999999999993  4.1999999999999993  1.3999999999999999
  1.3999999999999999  4.1999999999999993  4.1999999999999993
  1.3999999999999999  4.1999999999999993  1.3999999999999999
  0.0000000000000000  2.7999999999999998  0.0000000000000000
  2.7999999999999998  0.0000000000000000  2.7999999999999998
  4.1999999999999993  1.3999999999999999  4.1999999999999993
  4.1999999999999993  1.3999999999999999  1.3999999999999999
  2.7999999999999998  0.0000000000000000  0.0000000000000000
  0.0000000000000000  0.0000000000000000  2.7999999999999998
  0.0000000000000000  0.0000000000000000  0.0000000000000000
