H  O 
 1.0000000000000000
     5.5999999999999996    0.0000000000000000    0.0000000000000000
     0.0000000000000000    5.5999999999999996    0.0000000000000000
     0.0000000000000000    0.0000000000000000    5.5999999999999996
 H   O  
  32  16
Cartesian
  0.9655811238272278  4.6344188761727718  4.6344188761727718
  1.8344188761727720  3.7655811238272276  4.6344188761727718
  5.1655811238272271  3.2344188761727719  5.1655811238272271
  3.7655811238272276  0.9655811238272278  0.9655811238272278
  4.6344188761727718  1.8344188761727720  0.9655811238272278
  5.1655811238272271  0.4344188761727720  2.3655811238272277
  3.2344188761727719  2.3655811238272277  2.3655811238272277
  0.9655811238272278  3.7655811238272276  0.9655811238272278
  2.3655811238272277  5.1655811238272271  3.2344188761727719
  1.8344188761727720  4.6344188761727718  0.9655811238272278
  0.4344188761727720  5.1655811238272271  2.3655811238272277
  0.9655811238272278  0.9655811238272278  3.7655811238272276
  1.8344188761727720  1.8344188761727720  3.7655811238272276
  2.3655811238272277  0.4344188761727720  5.1655811238272271
  0.4344188761727720  2.3655811238272277  5.1655811238272271
  3.7655811238272276  3.7655811238272276  3.7655811238272276
  4.6344188761727718  4.6344188761727718  3.7655811238272276
  2.3655811238272277  3.2344188761727719  2.3655811238272277
  0.4344188761727720  3.2344188761727719  3.2344188761727719
  3.2344188761727719  5.1655811238272271  5.1655811238272271
  5.1655811238272271  5.1655811238272271  0.4344188761727720
  3.7655811238272276  1.8344188761727720  4.6344188761727718
  4.6344188761727718  0.9655811238272278  4.6344188761727718
  5.1655811238272271  2.3655811238272277  3.2344188761727719
  3.2344188761727719  3.2344188761727719  0.4344188761727720
  0.4344188761727720  0.4344188761727720  0.4344188761727720
  3.2344188761727719  0.4344188761727720  3.2344188761727719
  0.9655811238272278  1.8344188761727720  1.8344188761727720
  4.6344188761727718  3.7655811238272276  1.8344188761727720
  3.7655811238272276  4.6344188761727718  1.8344188761727720
  2.3655811238272277  2.3655811238272277  0.4344188761727720
  1.8344188761727720  0.9655811238272278  1.8344188761727720
  2.7999999999999998  2.7999999999999998  2.7999999999999998
  4.1999999999999993  4.1999999999999993  4.1999999999999993
  1.3999999999999999  1.3999999999999999  1.3999999999999999
  2.7999999999999998  2.7999999999999998  0.0000000000000000
  1.3999999999999999  1.3999999999999999  4.1999999999999993
  0.0000000000000000  2.7999999999999998  2.7999999999999998
  4.1999999999999993  4.1999999999999993  1.3999999999999999
  1.3999999999999999  4.1999999999999993  4.1999999999999993
  1.3999999999999999  4.1999999999999993  1.3999999999999999
  0.0000000000000000  2.7999999999999998  0.0000000000000000
  2.7999999999999998  0.0000000000000000  2.7999999999999998
  4.1999999999999993  1.3999999999999999  4.1999999999999993
  4.1999999999999993  1.3999999999999999  1.3999999999999999
  2.7999999999999998  0.0000000000000000  0.0000000000000000
  0.0000000000000000  0.0000000000000000  2.7999999999999998
  0.0000000000000000  0.0000000000000000  0.0000000000000000
