H  O 
 1.0000000000000000
     5.5999999999999996    0.0000000000000000    0.0000000000000000
     0.0000000000000000    5.5999999999999996    0.0000000000000000
     0.0000000000000000    0.0000000000000000    5.5999999999999996
 H   O  
  32  16
Cartesian
  1.0146558967083461  4.5853441032916535  4.5853441032916535
  1.7853441032916537  3.8146558967083459  4.5853441032916535
  5.2146558967083454  3.1853441032916536  5.2146558967083454
  3.8146558967083459  1.0146558967083461  1.0146558967083461
  4.5853441032916535  1.7853441032916537  1.0146558967083461
  5.2146558967083454  0.3853441032916539  2.4146558967083460
  3.1853441032916536  2.4146558967083460  2.4146558967083460
  1.0146558967083461  3.8146558967083459  1.0146558967083461
  2.4146558967083460  5.2146558967083454  3.1853441032916536
  1.7853441032916537  4.5853441032916535  1.0146558967083461
  0.3853441032916539  5.2146558967083454  2.4146558967083460
  1.0146558967083461  1.0146558967083461  3.8146558967083459
  1.7853441032916537  1.7853441032916537  3.8146558967083459
  2.4146558967083460  0.3853441032916539  5.2146558967083454
  0.3853441032916539  2.4146558967083460  5.2146558967083454
  3.8146558967083459  3.8146558967083459  3.8146558967083459
  4.5853441032916535  4.5853441032916535  3.8146558967083459
  2.4146558967083460  3.1853441032916536  2.4146558967083460
  0.3853441032916539  3.1853441032916536  3.1853441032916536
  3.1853441032916536  5.2146558967083454  5.2146558967083454
  5.2146558967083454  5.2146558967083454  0.3853441032916539
  3.8146558967083459  1.7853441032916537  4.5853441032916535
  4.5853441032916535  1.0146558967083461  4.5853441032916535
  5.2146558967083454  2.4146558967083460  3.1853441032916536
  3.1853441032916536  3.1853441032916536  0.3853441032916539
  0.3853441032916539  0.3853441032916539  0.3853441032916539
  3.1853441032916536  0.3853441032916539  3.1853441032916536
  1.0146558967083461  1.7853441032916537  1.7853441032916537
  4.5853441032916535  3.8146558967083459  1.7853441032916537
  3.8146558967083459  4.5853441032916535  1.7853441032916537
  2.4146558967083460  2.4146558967083460  0.3853441032916539
  1.7853441032916537  1.0146558967083461  1.7853441032916537
  2.7999999999999998  2.7999999999999998  2.7999999999999998
  4.1999999999999993  4.1999999999999993  4.1999999999999993
  1.3999999999999999  1.3999999999999999  1.3999999999999999
  2.7999999999999998  2.7999999999999998  0.0000000000000000
  1.3999999999999999  1.3999999999999999  4.1999999999999993
  0.0000000000000000  2.7999999999999998  2.7999999999999998
  4.1999999999999993  4.1999999999999993  1.3999999999999999
  1.3999999999999999  4.1999999999999993  4.1999999999999993
  1.3999999999999999  4.1999999999999993  1.3999999999999999
  0.0000000000000000  2.7999999999999998  0.0000000000000000
  2.7999999999999998  0.0000000000000000  2.7999999999999998
  4.1999999999999993  1.3999999999999999  4.1999999999999993
  4.1999999999999993  1.3999999999999999  1.3999999999999999
  2.7999999999999998  0.0000000000000000  0.0000000000000000
  0.0000000000000000  0.0000000000000000  2.7999999999999998
  0.0000000000000000  0.0000000000000000  0.0000000000000000
