H  O 
 1.0000000000000000
     5.5999999999999996    0.0000000000000000    0.0000000000000000
     0.0000000000000000    5.5999999999999996    0.0000000000000000
     0.0000000000000000    0.0000000000000000    5.5999999999999996
 H   O  
  32  16
Cartesian
  0.8299038105676657  4.7700961894323335  4.7700961894323335
  1.9700961894323341  3.6299038105676655  4.7700961894323335
  5.0299038105676654  3.3700961894323340  5.0299038105676654
  3.6299038105676655  0.8299038105676657  0.8299038105676657
  4.7700961894323335  1.9700961894323341  0.8299038105676657
  5.0299038105676654  0.5700961894323342  2.2299038105676656
  3.3700961894323340  2.2299038105676656  2.2299038105676656
  0.8299038105676657  3.6299038105676655  0.8299038105676657
  2.2299038105676656  5.0299038105676654  3.3700961894323340
  1.9700961894323341  4.7700961894323335  0.8299038105676657
  0.5700961894323342  5.0299038105676654  2.2299038105676656
  0.8299038105676657  0.8299038105676657  3.6299038105676655
  1.9700961894323341  1.9700961894323341  3.6299038105676655
  2.2299038105676656  0.5700961894323342  5.0299038105676654
  0.5700961894323342  2.2299038105676656  5.0299038105676654
  3.6299038105676655  3.6299038105676655  3.6299038105676655
  4.7700961894323335  4.7700961894323335  3.6299038105676655
  2.2299038105676656  3.3700961894323340  2.2299038105676656
  0.5700961894323342  3.3700961894323340  3.3700961894323340
  3.3700961894323340  5.0299038105676654  5.0299038105676654
  5.0299038105676654  5.0299038105676654  0.5700961894323342
  3.6299038105676655  1.9700961894323341  4.7700961894323335
  4.7700961894323335  0.8299038105676657  4.7700961894323335
  5.0299038105676654  2.2299038105676656  3.3700961894323340
  3.3700961894323340  3.3700961894323340  0.5700961894323342
  0.5700961894323342  0.5700961894323342  0.5700961894323342
  3.3700961894323340  0.5700961894323342  3.3700961894323340
  0.8299038105676657  1.9700961894323341  1.9700961894323341
  4.7700961894323335  3.6299038105676655  1.9700961894323341
  3.6299038105676655  4.7700961894323335  1.9700961894323341
  2.2299038105676656  2.2299038105676656  0.5700961894323342
  1.9700961894323341  0.8299038105676657  1.9700961894323341
  2.7999999999999998  2.7999999999999998  2.7999999999999998
  4.1999999999999993  4.1999999999999993  4.1999999999999993
  1.3999999999999999  1.3999999999999999  1.3999999999999999
  2.7999999999999998  2.7999999999999998  0.0000000000000000
  1.3999999999999999  1.3999999999999999  4.1999999999999993
  0.0000000000000000  2.7999999999999998  2.7999999999999998
  4.1999999999999993  4.1999999999999993  1.3999999999999999
  1.3999999999999999  4.1999999999999993  4.1999999999999993
  1.3999999999999999  4.1999999999999993  1.3999999999999999
  0.0000000000000000  2.7999999999999998  0.0000000000000000
  2.7999999999999998  0.0000000000000000  2.7999999999999998
  4.1999999999999993  1.3999999999999999  4.1999999999999993
  4.1999999999999993  1.3999999999999999  1.3999999999999999
  2.7999999999999998  0.0000000000000000  0.0000000000000000
  0.0000000000000000  0.0000000000000000  2.7999999999999998
  0.0000000000000000  0.0000000000000000  0.0000000000000000
