H  O 
 1.0000000000000000
     5.5999999999999996    0.0000000000000000    0.0000000000000000
     0.0000000000000000    5.5999999999999996    0.0000000000000000
     0.0000000000000000    0.0000000000000000    5.5999999999999996
 H   O  
  32  16
Cartesian
  0.9367136103677465  4.6632863896322529  4.6632863896322529
  1.8632863896322533  3.7367136103677465  4.6632863896322529
  5.1367136103677469  3.2632863896322530  5.1367136103677469
  3.7367136103677465  0.9367136103677465  0.9367136103677465
  4.6632863896322529  1.8632863896322533  0.9367136103677465
  5.1367136103677469  0.4632863896322534  2.3367136103677466
  3.2632863896322530  2.3367136103677466  2.3367136103677466
  0.9367136103677465  3.7367136103677465  0.9367136103677465
  2.3367136103677466  5.1367136103677469  3.2632863896322530
  1.8632863896322533  4.6632863896322529  0.9367136103677465
  0.4632863896322534  5.1367136103677469  2.3367136103677466
  0.9367136103677465  0.9367136103677465  3.7367136103677465
  1.8632863896322533  1.8632863896322533  3.7367136103677465
  2.3367136103677466  0.4632863896322534  5.1367136103677469
  0.4632863896322534  2.3367136103677466  5.1367136103677469
  3.7367136103677465  3.7367136103677465  3.7367136103677465
  4.6632863896322529  4.6632863896322529  3.7367136103677465
  2.3367136103677466  3.2632863896322530  2.3367136103677466
  0.4632863896322534  3.2632863896322530  3.2632863896322530
  3.2632863896322530  5.1367136103677469  5.1367136103677469
  5.1367136103677469  5.1367136103677469  0.4632863896322534
  3.7367136103677465  1.8632863896322533  4.6632863896322529
  4.6632863896322529  0.9367136103677465  4.6632863896322529
  5.1367136103677469  2.3367136103677466  3.2632863896322530
  3.2632863896322530  3.2632863896322530  0.4632863896322534
  0.4632863896322534  0.4632863896322534  0.4632863896322534
  3.2632863896322530  0.4632863896322534  3.2632863896322530
  0.9367136103677465  1.8632863896322533  1.8632863896322533
  4.6632863896322529  3.7367136103677465  1.8632863896322533
  3.7367136103677465  4.6632863896322529  1.8632863896322533
  2.3367136103677466  2.3367136103677466  0.4632863896322534
  1.8632863896322533  0.9367136103677465  1.8632863896322533
  2.7999999999999998  2.7999999999999998  2.7999999999999998
  4.1999999999999993  4.1999999999999993  4.1999999999999993
  1.3999999999999999  1.3999999999999999  1.3999999999999999
  2.7999999999999998  2.7999999999999998  0.0000000000000000
  1.3999999999999999  1.3999999999999999  4.1999999999999993
  0.0000000000000000  2.7999999999999998  2.7999999999999998
  4.1999999999999993  4.1999999999999993  1.3999999999999999
  1.3999999999999999  4.1999999999999993  4.1999999999999993
  1.3999999999999999  4.1999999999999993  1.3999999999999999
  0.0000000000000000  2.7999999999999998  0.0000000000000000
  2.7999999999999998  0.0000000000000000  2.7999999999999998
  4.1999999999999993  1.3999999999999999  4.1999999999999993
  4.1999999999999993  1.3999999999999999  1.3999999999999999
  2.7999999999999998  0.0000000000000000  0.0000000000000000
  0.0000000000000000  0.0000000000000000  2.7999999999999998
  0.0000000000000000  0.0000000000000000  0.0000000000000000
