H  O 
 1.0000000000000000
     5.5999999999999996    0.0000000000000000    0.0000000000000000
     0.0000000000000000    5.5999999999999996    0.0000000000000000
     0.0000000000000000    0.0000000000000000    5.5999999999999996
 H   O  
  32  16
Cartesian
  0.8501110699893027  4.7498889300106972  4.7498889300106972
  1.9498889300106972  3.6501110699893022  4.7498889300106972
  5.0501110699893026  3.3498889300106973  5.0501110699893026
  3.6501110699893022  0.8501110699893027  0.8501110699893027
  4.7498889300106972  1.9498889300106972  0.8501110699893027
  5.0501110699893026  0.5498889300106972  2.2501110699893023
  3.3498889300106973  2.2501110699893023  2.2501110699893023
  0.8501110699893027  3.6501110699893022  0.8501110699893027
  2.2501110699893023  5.0501110699893026  3.3498889300106973
  1.9498889300106972  4.7498889300106972  0.8501110699893027
  0.5498889300106972  5.0501110699893026  2.2501110699893023
  0.8501110699893027  0.8501110699893027  3.6501110699893022
  1.9498889300106972  1.9498889300106972  3.6501110699893022
  2.2501110699893023  0.5498889300106972  5.0501110699893026
  0.5498889300106972  2.2501110699893023  5.0501110699893026
  3.6501110699893022  3.6501110699893022  3.6501110699893022
  4.7498889300106972  4.7498889300106972  3.6501110699893022
  2.2501110699893023  3.3498889300106973  2.2501110699893023
  0.5498889300106972  3.3498889300106973  3.3498889300106973
  3.3498889300106973  5.0501110699893026  5.0501110699893026
  5.0501110699893026  5.0501110699893026  0.5498889300106972
  3.6501110699893022  1.9498889300106972  4.7498889300106972
  4.7498889300106972  0.8501110699893027  4.7498889300106972
  5.0501110699893026  2.2501110699893023  3.3498889300106973
  3.3498889300106973  3.3498889300106973  0.5498889300106972
  0.5498889300106972  0.5498889300106972  0.5498889300106972
  3.3498889300106973  0.5498889300106972  3.3498889300106973
  0.8501110699893027  1.9498889300106972  1.9498889300106972
  4.7498889300106972  3.6501110699893022  1.9498889300106972
  3.6501110699893022  4.7498889300106972  1.9498889300106972
  2.2501110699893023  2.2501110699893023  0.5498889300106972
  1.9498889300106972  0.8501110699893027  1.9498889300106972
  2.7999999999999998  2.7999999999999998  2.7999999999999998
  4.1999999999999993  4.1999999999999993  4.1999999999999993
  1.3999999999999999  1.3999999999999999  1.3999999999999999
  2.7999999999999998  2.7999999999999998  0.0000000000000000
  1.3999999999999999  1.3999999999999999  4.1999999999999993
  0.0000000000000000  2.7999999999999998  2.7999999999999998
  4.1999999999999993  4.1999999999999993  1.3999999999999999
  1.3999999999999999  4.1999999999999993  4.1999999999999993
  1.3999999999999999  4.1999999999999993  1.3999999999999999
  0.0000000000000000  2.7999999999999998  0.0000000000000000
  2.7999999999999998  0.0000000000000000  2.7999999999999998
  4.1999999999999993  1.3999999999999999  4.1999999999999993
  4.1999999999999993  1.3999999999999999  1.3999999999999999
  2.7999999999999998  0.0000000000000000  0.0000000000000000
  0.0000000000000000  0.0000000000000000  2.7999999999999998
  0.0000000000000000  0.0000000000000000  0.0000000000000000
