H  O 
 1.0000000000000000
     5.5999999999999996    0.0000000000000000    0.0000000000000000
     0.0000000000000000    5.5999999999999996    0.0000000000000000
     0.0000000000000000    0.0000000000000000    5.5999999999999996
 H   O  
  32  16
Cartesian
  0.9713546265191241  4.6286453734808752  4.6286453734808752
  1.8286453734808756  3.7713546265191238  4.6286453734808752
  5.1713546265191246  3.2286453734808758  5.1713546265191246
  3.7713546265191238  0.9713546265191241  0.9713546265191241
  4.6286453734808752  1.8286453734808756  0.9713546265191241
  5.1713546265191246  0.4286453734808758  2.3713546265191243
  3.2286453734808758  2.3713546265191243  2.3713546265191243
  0.9713546265191241  3.7713546265191238  0.9713546265191241
  2.3713546265191243  5.1713546265191246  3.2286453734808758
  1.8286453734808756  4.6286453734808752  0.9713546265191241
  0.4286453734808758  5.1713546265191246  2.3713546265191243
  0.9713546265191241  0.9713546265191241  3.7713546265191238
  1.8286453734808756  1.8286453734808756  3.7713546265191238
  2.3713546265191243  0.4286453734808758  5.1713546265191246
  0.4286453734808758  2.3713546265191243  5.1713546265191246
  3.7713546265191238  3.7713546265191238  3.7713546265191238
  4.6286453734808752  4.6286453734808752  3.7713546265191238
  2.3713546265191243  3.2286453734808758  2.3713546265191243
  0.4286453734808758  3.2286453734808758  3.2286453734808758
  3.2286453734808758  5.1713546265191246  5.1713546265191246
  5.1713546265191246  5.1713546265191246  0.4286453734808758
  3.7713546265191238  1.8286453734808756  4.6286453734808752
  4.6286453734808752  0.9713546265191241  4.6286453734808752
  5.1713546265191246  2.3713546265191243  3.2286453734808758
  3.2286453734808758  3.2286453734808758  0.4286453734808758
  0.4286453734808758  0.4286453734808758  0.4286453734808758
  3.2286453734808758  0.4286453734808758  3.2286453734808758
  0.9713546265191241  1.8286453734808756  1.8286453734808756
  4.6286453734808752  3.7713546265191238  1.8286453734808756
  3.7713546265191238  4.6286453734808752  1.8286453734808756
  2.3713546265191243  2.3713546265191243  0.4286453734808758
  1.8286453734808756  0.9713546265191241  1.8286453734808756
  2.7999999999999998  2.7999999999999998  2.7999999999999998
  4.1999999999999993  4.1999999999999993  4.1999999999999993
  1.3999999999999999  1.3999999999999999  1.3999999999999999
  2.7999999999999998  2.7999999999999998  0.0000000000000000
  1.3999999999999999  1.3999999999999999  4.1999999999999993
  0.0000000000000000  2.7999999999999998  2.7999999999999998
  4.1999999999999993  4.1999999999999993  1.3999999999999999
  1.3999999999999999  4.1999999999999993  4.1999999999999993
  1.3999999999999999  4.1999999999999993  1.3999999999999999
  0.0000000000000000  2.7999999999999998  0.0000000000000000
  2.7999999999999998  0.0000000000000000  2.7999999999999998
  4.1999999999999993  1.3999999999999999  4.1999999999999993
  4.1999999999999993  1.3999999999999999  1.3999999999999999
  2.7999999999999998  0.0000000000000000  0.0000000000000000
  0.0000000000000000  0.0000000000000000  2.7999999999999998
  0.0000000000000000  0.0000000000000000  0.0000000000000000
