H  O 
 1.0000000000000000
     5.5999999999999996    0.0000000000000000    0.0000000000000000
     0.0000000000000000    5.5999999999999996    0.0000000000000000
     0.0000000000000000    0.0000000000000000    5.5999999999999996
 H   O  
  32  16
Cartesian
  0.8847520861406802  4.7152479138593195  4.7152479138593195
  1.9152479138593195  3.6847520861406799  4.7152479138593195
  5.0847520861406803  3.3152479138593196  5.0847520861406803
  3.6847520861406799  0.8847520861406802  0.8847520861406802
  4.7152479138593195  1.9152479138593195  0.8847520861406802
  5.0847520861406803  0.5152479138593197  2.2847520861406800
  3.3152479138593196  2.2847520861406800  2.2847520861406800
  0.8847520861406802  3.6847520861406799  0.8847520861406802
  2.2847520861406800  5.0847520861406803  3.3152479138593196
  1.9152479138593195  4.7152479138593195  0.8847520861406802
  0.5152479138593197  5.0847520861406803  2.2847520861406800
  0.8847520861406802  0.8847520861406802  3.6847520861406799
  1.9152479138593195  1.9152479138593195  3.6847520861406799
  2.2847520861406800  0.5152479138593197  5.0847520861406803
  0.5152479138593197  2.2847520861406800  5.0847520861406803
  3.6847520861406799  3.6847520861406799  3.6847520861406799
  4.7152479138593195  4.7152479138593195  3.6847520861406799
  2.2847520861406800  3.3152479138593196  2.2847520861406800
  0.5152479138593197  3.3152479138593196  3.3152479138593196
  3.3152479138593196  5.0847520861406803  5.0847520861406803
  5.0847520861406803  5.0847520861406803  0.5152479138593197
  3.6847520861406799  1.9152479138593195  4.7152479138593195
  4.7152479138593195  0.8847520861406802  4.7152479138593195
  5.0847520861406803  2.2847520861406800  3.3152479138593196
  3.3152479138593196  3.3152479138593196  0.5152479138593197
  0.5152479138593197  0.5152479138593197  0.5152479138593197
  3.3152479138593196  0.5152479138593197  3.3152479138593196
  0.8847520861406802  1.9152479138593195  1.9152479138593195
  4.7152479138593195  3.6847520861406799  1.9152479138593195
  3.6847520861406799  4.7152479138593195  1.9152479138593195
  2.2847520861406800  2.2847520861406800  0.5152479138593197
  1.9152479138593195  0.8847520861406802  1.9152479138593195
  2.7999999999999998  2.7999999999999998  2.7999999999999998
  4.1999999999999993  4.1999999999999993  4.1999999999999993
  1.3999999999999999  1.3999999999999999  1.3999999999999999
  2.7999999999999998  2.7999999999999998  0.0000000000000000
  1.3999999999999999  1.3999999999999999  4.1999999999999993
  0.0000000000000000  2.7999999999999998  2.7999999999999998
  4.1999999999999993  4.1999999999999993  1.3999999999999999
  1.3999999999999999  4.1999999999999993  4.1999999999999993
  1.3999999999999999  4.1999999999999993  1.3999999999999999
  0.0000000000000000  2.7999999999999998  0.0000000000000000
  2.7999999999999998  0.0000000000000000  2.7999999999999998
  4.1999999999999993  1.3999999999999999  4.1999999999999993
  4.1999999999999993  1.3999999999999999  1.3999999999999999
  2.7999999999999998  0.0000000000000000  0.0000000000000000
  0.0000000000000000  0.0000000000000000  2.7999999999999998
  0.0000000000000000  0.0000000000000000  0.0000000000000000
