H  O 
 1.0000000000000000
     5.5999999999999996    0.0000000000000000    0.0000000000000000
     0.0000000000000000    5.5999999999999996    0.0000000000000000
     0.0000000000000000    0.0000000000000000    5.5999999999999996
 H   O  
  32  16
Cartesian
  0.8241303078757696  4.7758696921242301  4.7758696921242301
  1.9758696921242302  3.6241303078757698  4.7758696921242301
  5.0241303078757698  3.3758696921242306  5.0241303078757698
  3.6241303078757698  0.8241303078757696  0.8241303078757696
  4.7758696921242301  1.9758696921242302  0.8241303078757696
  5.0241303078757698  0.5758696921242304  2.2241303078757695
  3.3758696921242306  2.2241303078757695  2.2241303078757695
  0.8241303078757696  3.6241303078757698  0.8241303078757696
  2.2241303078757695  5.0241303078757698  3.3758696921242306
  1.9758696921242302  4.7758696921242301  0.8241303078757696
  0.5758696921242304  5.0241303078757698  2.2241303078757695
  0.8241303078757696  0.8241303078757696  3.6241303078757698
  1.9758696921242302  1.9758696921242302  3.6241303078757698
  2.2241303078757695  0.5758696921242304  5.0241303078757698
  0.5758696921242304  2.2241303078757695  5.0241303078757698
  3.6241303078757698  3.6241303078757698  3.6241303078757698
  4.7758696921242301  4.7758696921242301  3.6241303078757698
  2.2241303078757695  3.3758696921242306  2.2241303078757695
  0.5758696921242304  3.3758696921242306  3.3758696921242306
  3.3758696921242306  5.0241303078757698  5.0241303078757698
  5.0241303078757698  5.0241303078757698  0.5758696921242304
  3.6241303078757698  1.9758696921242302  4.7758696921242301
  4.7758696921242301  0.8241303078757696  4.7758696921242301
  5.0241303078757698  2.2241303078757695  3.3758696921242306
  3.3758696921242306  3.3758696921242306  0.5758696921242304
  0.5758696921242304  0.5758696921242304  0.5758696921242304
  3.3758696921242306  0.5758696921242304  3.3758696921242306
  0.8241303078757696  1.9758696921242302  1.9758696921242302
  4.7758696921242301  3.6241303078757698  1.9758696921242302
  3.6241303078757698  4.7758696921242301  1.9758696921242302
  2.2241303078757695  2.2241303078757695  0.5758696921242304
  1.9758696921242302  0.8241303078757696  1.9758696921242302
  2.7999999999999998  2.7999999999999998  2.7999999999999998
  4.1999999999999993  4.1999999999999993  4.1999999999999993
  1.3999999999999999  1.3999999999999999  1.3999999999999999
  2.7999999999999998  2.7999999999999998  0.0000000000000000
  1.3999999999999999  1.3999999999999999  4.1999999999999993
  0.0000000000000000  2.7999999999999998  2.7999999999999998
  4.1999999999999993  4.1999999999999993  1.3999999999999999
  1.3999999999999999  4.1999999999999993  4.1999999999999993
  1.3999999999999999  4.1999999999999993  1.3999999999999999
  0.0000000000000000  2.7999999999999998  0.0000000000000000
  2.7999999999999998  0.0000000000000000  2.7999999999999998
  4.1999999999999993  1.3999999999999999  4.1999999999999993
  4.1999999999999993  1.3999999999999999  1.3999999999999999
  2.7999999999999998  0.0000000000000000  0.0000000000000000
  0.0000000000000000  0.0000000000000000  2.7999999999999998
  0.0000000000000000  0.0000000000000000  0.0000000000000000
