H  O 
 1.0000000000000000
     5.5999999999999996    0.0000000000000000    0.0000000000000000
     0.0000000000000000    5.5999999999999996    0.0000000000000000
     0.0000000000000000    0.0000000000000000    5.5999999999999996
 H   O  
  32  16
Cartesian
  0.9453738644055909  4.6546261355944090  4.6546261355944090
  1.8546261355944089  3.7453738644055905  4.6546261355944090
  5.1453738644055900  3.2546261355944091  5.1453738644055900
  3.7453738644055905  0.9453738644055909  0.9453738644055909
  4.6546261355944090  1.8546261355944089  0.9453738644055909
  5.1453738644055900  0.4546261355944090  2.3453738644055910
  3.2546261355944091  2.3453738644055910  2.3453738644055910
  0.9453738644055909  3.7453738644055905  0.9453738644055909
  2.3453738644055910  5.1453738644055900  3.2546261355944091
  1.8546261355944089  4.6546261355944090  0.9453738644055909
  0.4546261355944090  5.1453738644055900  2.3453738644055910
  0.9453738644055909  0.9453738644055909  3.7453738644055905
  1.8546261355944089  1.8546261355944089  3.7453738644055905
  2.3453738644055910  0.4546261355944090  5.1453738644055900
  0.4546261355944090  2.3453738644055910  5.1453738644055900
  3.7453738644055905  3.7453738644055905  3.7453738644055905
  4.6546261355944090  4.6546261355944090  3.7453738644055905
  2.3453738644055910  3.2546261355944091  2.3453738644055910
  0.4546261355944090  3.2546261355944091  3.2546261355944091
  3.2546261355944091  5.1453738644055900  5.1453738644055900
  5.1453738644055900  5.1453738644055900  0.4546261355944090
  3.7453738644055905  1.8546261355944089  4.6546261355944090
  4.6546261355944090  0.9453738644055909  4.6546261355944090
  5.1453738644055900  2.3453738644055910  3.2546261355944091
  3.2546261355944091  3.2546261355944091  0.4546261355944090
  0.4546261355944090  0.4546261355944090  0.4546261355944090
  3.2546261355944091  0.4546261355944090  3.2546261355944091
  0.9453738644055909  1.8546261355944089  1.8546261355944089
  4.6546261355944090  3.7453738644055905  1.8546261355944089
  3.7453738644055905  4.6546261355944090  1.8546261355944089
  2.3453738644055910  2.3453738644055910  0.4546261355944090
  1.8546261355944089  0.9453738644055909  1.8546261355944089
  2.7999999999999998  2.7999999999999998  2.7999999999999998
  4.1999999999999993  4.1999999999999993  4.1999999999999993
  1.3999999999999999  1.3999999999999999  1.3999999999999999
  2.7999999999999998  2.7999999999999998  0.0000000000000000
  1.3999999999999999  1.3999999999999999  4.1999999999999993
  0.0000000000000000  2.7999999999999998  2.7999999999999998
  4.1999999999999993  4.1999999999999993  1.3999999999999999
  1.3999999999999999  4.1999999999999993  4.1999999999999993
  1.3999999999999999  4.1999999999999993  1.3999999999999999
  0.0000000000000000  2.7999999999999998  0.0000000000000000
  2.7999999999999998  0.0000000000000000  2.7999999999999998
  4.1999999999999993  1.3999999999999999  4.1999999999999993
  4.1999999999999993  1.3999999999999999  1.3999999999999999
  2.7999999999999998  0.0000000000000000  0.0000000000000000
  0.0000000000000000  0.0000000000000000  2.7999999999999998
  0.0000000000000000  0.0000000000000000  0.0000000000000000
