H  O 
 1.0000000000000000
     5.5999999999999996    0.0000000000000000    0.0000000000000000
     0.0000000000000000    5.5999999999999996    0.0000000000000000
     0.0000000000000000    0.0000000000000000    5.5999999999999996
 H   O  
  32  16
Cartesian
  0.9886751345948129  4.6113248654051873  4.6113248654051873
  1.8113248654051870  3.7886751345948126  4.6113248654051873
  5.1886751345948126  3.2113248654051869  5.1886751345948126
  3.7886751345948126  0.9886751345948129  0.9886751345948129
  4.6113248654051873  1.8113248654051870  0.9886751345948129
  5.1886751345948126  0.4113248654051870  2.3886751345948127
  3.2113248654051869  2.3886751345948127  2.3886751345948127
  0.9886751345948129  3.7886751345948126  0.9886751345948129
  2.3886751345948127  5.1886751345948126  3.2113248654051869
  1.8113248654051870  4.6113248654051873  0.9886751345948129
  0.4113248654051870  5.1886751345948126  2.3886751345948127
  0.9886751345948129  0.9886751345948129  3.7886751345948126
  1.8113248654051870  1.8113248654051870  3.7886751345948126
  2.3886751345948127  0.4113248654051870  5.1886751345948126
  0.4113248654051870  2.3886751345948127  5.1886751345948126
  3.7886751345948126  3.7886751345948126  3.7886751345948126
  4.6113248654051873  4.6113248654051873  3.7886751345948126
  2.3886751345948127  3.2113248654051869  2.3886751345948127
  0.4113248654051870  3.2113248654051869  3.2113248654051869
  3.2113248654051869  5.1886751345948126  5.1886751345948126
  5.1886751345948126  5.1886751345948126  0.4113248654051870
  3.7886751345948126  1.8113248654051870  4.6113248654051873
  4.6113248654051873  0.9886751345948129  4.6113248654051873
  5.1886751345948126  2.3886751345948127  3.2113248654051869
  3.2113248654051869  3.2113248654051869  0.4113248654051870
  0.4113248654051870  0.4113248654051870  0.4113248654051870
  3.2113248654051869  0.4113248654051870  3.2113248654051869
  0.9886751345948129  1.8113248654051870  1.8113248654051870
  4.6113248654051873  3.7886751345948126  1.8113248654051870
  3.7886751345948126  4.6113248654051873  1.8113248654051870
  2.3886751345948127  2.3886751345948127  0.4113248654051870
  1.8113248654051870  0.9886751345948129  1.8113248654051870
  2.7999999999999998  2.7999999999999998  2.7999999999999998
  4.1999999999999993  4.1999999999999993  4.1999999999999993
  1.3999999999999999  1.3999999999999999  1.3999999999999999
  2.7999999999999998  2.7999999999999998  0.0000000000000000
  1.3999999999999999  1.3999999999999999  4.1999999999999993
  0.0000000000000000  2.7999999999999998  2.7999999999999998
  4.1999999999999993  4.1999999999999993  1.3999999999999999
  1.3999999999999999  4.1999999999999993  4.1999999999999993
  1.3999999999999999  4.1999999999999993  1.3999999999999999
  0.0000000000000000  2.7999999999999998  0.0000000000000000
  2.7999999999999998  0.0000000000000000  2.7999999999999998
  4.1999999999999993  1.3999999999999999  4.1999999999999993
  4.1999999999999993  1.3999999999999999  1.3999999999999999
  2.7999999999999998  0.0000000000000000  0.0000000000000000
  0.0000000000000000  0.0000000000000000  2.7999999999999998
  0.0000000000000000  0.0000000000000000  0.0000000000000000
